high sym                                
   1.0000000000000000     
     0.0177466484676730    2.7338973283861154    2.7338973283861154
     2.7425951042681396   -0.0088544202425713    2.7249746795920884
     2.7425951042681396    2.7249746795920884   -0.0088544202425713
   Si
     2
Direct
  0.0049974292790455  0.0000022331548648  0.0000022331548648
  0.2550025707209524  0.2499977668451352  0.2499977668451352

  0.00000000E+00  0.00000000E+00  0.00000000E+00
  0.00000000E+00  0.00000000E+00  0.00000000E+00
