supercell                               
   1.0000000000000000     
     0.0068861348810610    8.2339839733443014    8.1500178642071219
     8.2067877013303718    0.0554569278359186    8.1014470712522648
     8.3149788045128563    8.2936042835719288   -0.0527341753465650
   Si
    54
Direct
  0.9982989768005908  0.0000780600657890  0.9984891027178620
  0.0821645274195717  0.0860912509511209  0.0826804782537991
  0.9985012708670524  0.0012151070296156  0.3318769784540407
  0.0850852174380705  0.0841310644501689  0.4179638849940090
  0.9997643509992002  0.9995324454984811  0.6681361042488305
  0.0850225497536030  0.0847171343485726  0.7497760515555285
  0.0003324759780270  0.3351232035751508  0.9993711782440684
  0.0843513908283811  0.4177156942711235  0.0812070322300471
  0.0004920999359470  0.3299510393933218  0.3340287196351639
  0.0809451106209025  0.4178617150315844  0.4180949168106807
  0.0029096522646626  0.3336493437004577  0.6650437011840822
  0.0833054987143882  0.4181971314773349  0.7516672207316333
  0.0006144266133106  0.6650239667474622  0.9988266211524035
  0.0827653709437399  0.7501276881367716  0.0810070556251219
  0.9977158126125545  0.6667984602531831  0.3332155583015819
  0.0847658610317126  0.7512024549292278  0.4165844189488084
  0.0033171103807206  0.6663488327125435  0.6663550681438295
  0.0846974455713081  0.7502071018879448  0.7482016210268227
  0.3323103463827977  0.0007038779328141  0.0024384177827415
  0.4169033453428241  0.0805830462427792  0.0838422612181091
  0.3340034031171939  0.0005621812862842  0.3344378483699302
  0.4170595272475452  0.0799795767029252  0.4168559156744678
  0.3309148839306175  0.9993251147531694  0.6666394806469640
  0.4198698042875009  0.0818074718531960  0.7492622840242191
  0.3333133860138844  0.3340368854180724  0.0014192651180878
  0.4167826185529364  0.4138914762859827  0.0856655760594975
  0.3322378410969620  0.3323155722128064  0.3365210179680389
  0.4180922376176355  0.4171292520420167  0.4171001195456725
  0.3322171562453917  0.3341986250462625  0.6659089037382984
  0.4168670860494927  0.4169395637126314  0.7465869320982890
  0.3355939856393562  0.6657235683936662  0.0007402968821992
  0.4155347229047948  0.7505380524692384  0.0828905056200426
  0.3354412060541421  0.6660401194078958  0.3333237223943968
  0.4149842537366979  0.7523809557056040  0.4165988689403974
  0.3342379690815278  0.6681082200323374  0.6678620998634912
  0.4146288227562707  0.7507789853500171  0.7519058065073878
  0.6673913298450032  0.0011739369079251  0.9964755515578929
  0.7528839432830949  0.0822878873135338  0.0816660951687354
  0.6662594736045477  0.0035163214848453  0.3308568460306205
  0.7496407873833348  0.0844900709259306  0.4150237689335228
  0.6660127041891855  0.9997201089629044  0.6647723165399313
  0.7501685098970725  0.0817904644359899  0.7492527960206274
  0.6657681905534076  0.3339155284044537  0.0014405210073818
  0.7497116141236262  0.4151156990997151  0.0834112783803391
  0.6676881824938263  0.3343611926461918  0.3334691432686796
  0.7481991152211407  0.4185091227749282  0.4172201229781081
  0.6670714503733564  0.3317070680329053  0.6662160923012621
  0.7505766271454704  0.4176560180658413  0.7503528728622157
  0.6654533029361502  0.6695575397984612  0.0002197921261669
  0.7502370685558191  0.7503606085616426  0.0801634713011410
  0.6657083651719091  0.6667408432273660  0.3359696982280269
  0.7473983865453988  0.7495178996858556  0.4185426562328445
  0.6665263499049559  0.6665882931834446  0.6640760527980731
  0.7525089612711398  0.7467991072792799  0.7506511360176731

  0.00000000E+00  0.00000000E+00  0.00000000E+00
  0.00000000E+00  0.00000000E+00  0.00000000E+00
  0.00000000E+00  0.00000000E+00  0.00000000E+00
  0.00000000E+00  0.00000000E+00  0.00000000E+00
  0.00000000E+00  0.00000000E+00  0.00000000E+00
  0.00000000E+00  0.00000000E+00  0.00000000E+00
  0.00000000E+00  0.00000000E+00  0.00000000E+00
  0.00000000E+00  0.00000000E+00  0.00000000E+00
  0.00000000E+00  0.00000000E+00  0.00000000E+00
  0.00000000E+00  0.00000000E+00  0.00000000E+00
  0.00000000E+00  0.00000000E+00  0.00000000E+00
  0.00000000E+00  0.00000000E+00  0.00000000E+00
  0.00000000E+00  0.00000000E+00  0.00000000E+00
  0.00000000E+00  0.00000000E+00  0.00000000E+00
  0.00000000E+00  0.00000000E+00  0.00000000E+00
  0.00000000E+00  0.00000000E+00  0.00000000E+00
  0.00000000E+00  0.00000000E+00  0.00000000E+00
  0.00000000E+00  0.00000000E+00  0.00000000E+00
  0.00000000E+00  0.00000000E+00  0.00000000E+00
  0.00000000E+00  0.00000000E+00  0.00000000E+00
  0.00000000E+00  0.00000000E+00  0.00000000E+00
  0.00000000E+00  0.00000000E+00  0.00000000E+00
  0.00000000E+00  0.00000000E+00  0.00000000E+00
  0.00000000E+00  0.00000000E+00  0.00000000E+00
  0.00000000E+00  0.00000000E+00  0.00000000E+00
  0.00000000E+00  0.00000000E+00  0.00000000E+00
  0.00000000E+00  0.00000000E+00  0.00000000E+00
  0.00000000E+00  0.00000000E+00  0.00000000E+00
  0.00000000E+00  0.00000000E+00  0.00000000E+00
  0.00000000E+00  0.00000000E+00  0.00000000E+00
  0.00000000E+00  0.00000000E+00  0.00000000E+00
  0.00000000E+00  0.00000000E+00  0.00000000E+00
  0.00000000E+00  0.00000000E+00  0.00000000E+00
  0.00000000E+00  0.00000000E+00  0.00000000E+00
  0.00000000E+00  0.00000000E+00  0.00000000E+00
  0.00000000E+00  0.00000000E+00  0.00000000E+00
  0.00000000E+00  0.00000000E+00  0.00000000E+00
  0.00000000E+00  0.00000000E+00  0.00000000E+00
  0.00000000E+00  0.00000000E+00  0.00000000E+00
  0.00000000E+00  0.00000000E+00  0.00000000E+00
  0.00000000E+00  0.00000000E+00  0.00000000E+00
  0.00000000E+00  0.00000000E+00  0.00000000E+00
  0.00000000E+00  0.00000000E+00  0.00000000E+00
  0.00000000E+00  0.00000000E+00  0.00000000E+00
  0.00000000E+00  0.00000000E+00  0.00000000E+00
  0.00000000E+00  0.00000000E+00  0.00000000E+00
  0.00000000E+00  0.00000000E+00  0.00000000E+00
  0.00000000E+00  0.00000000E+00  0.00000000E+00
  0.00000000E+00  0.00000000E+00  0.00000000E+00
  0.00000000E+00  0.00000000E+00  0.00000000E+00
  0.00000000E+00  0.00000000E+00  0.00000000E+00
  0.00000000E+00  0.00000000E+00  0.00000000E+00
  0.00000000E+00  0.00000000E+00  0.00000000E+00
  0.00000000E+00  0.00000000E+00  0.00000000E+00
