supercell
 1.000000
 0.006886134881060955 8.233983973344301 8.150017864207122
 8.206787701330372 0.055456927835918594 8.101447071252265
 8.314978804512856 8.293604283571929 -0.052734175346564986
  Si  
  54  
Direct
  -0.0017010231994122186  7.806006578952598e-05  -0.0015108972821364693
  0.08216452741956858  0.08609125095111898  0.08268047825379707
  -0.0014987291329477408  0.0012151070296141926  0.33187697845404
  0.08508521743806839  0.08413106445017103  0.4179638849940077
  -0.00023564900080191208  -0.00046755450151819055  0.6681361042488335
  0.0850225497536014  0.08471713434857336  0.7497760515555292
  0.00033247597802762985  0.3351232035751498  -0.0006288217559319575
  0.08435139082838292  0.4177156942711264  0.08120703223004472
  0.0004920999359481482  0.32995103939332193  0.3340287196351643
  0.08094511062090395  0.4178617150315831  0.4180949168106824
  0.0029096522646640255  0.3336493437004594  0.6650437011840791
  0.08330549871438891  0.4181971314773327  0.7516672207316334
  0.0006144266133114029  0.6650239667474633  -0.001173378847595996
  0.08276537094374109  0.7501276881367713  0.08100705562511873
  -0.0022841873874455687  0.6667984602531829  0.3332155583015806
  0.08476586103171257  0.751202454929227  0.41658441894880543
  0.0033171103807213  0.6663488327125411  0.6663550681438315
  0.0846974455713091  0.7502071018879477  0.7482016210268243
  0.3323103463828011  0.0007038779328137346  0.0024384177827402875
  0.41690334534282125  0.08058304624277701  0.08384226121811023
  0.33400340311719423  0.0005621812862836029  0.3344378483699316
  0.4170595272475444  0.07997957670292227  0.41685591567446545
  0.33091488393061663  -0.0006748852468287658  0.6666394806469665
  0.4198698042874974  0.08180747185319887  0.7492622840242223
  0.3333133860138869  0.3340368854180757  0.0014192651180912619
  0.41678261855293586  0.4138914762859859  0.08566557605949543
  0.3322378410969609  0.33231557221280433  0.3365210179680418
  0.41809223761763625  0.41712925204201756  0.417100119545675
  0.332217156245392  0.3341986250462608  0.6659089037382986
  0.4168670860494955  0.4169395637126291  0.7465869320982887
  0.33559398563935544  0.6657235683936653  0.0007402968821964562
  0.41553472290479676  0.7505380524692404  0.08289050562004374
  0.3354412060541449  0.6660401194078933  0.3333237223943959
  0.4149842537367006  0.7523809557056045  0.41659886894040077
  0.33423796908152537  0.6681082200323338  0.6678620998634893
  0.41462882275627244  0.7507789853500144  0.7519058065073891
  0.6673913298450016  0.001173936907922113  -0.0035244484421066424
  0.7528839432830963  0.08228788731353154  0.08166609516873669
  0.6662594736045444  0.0035163214848443203  0.33085684603061905
  0.7496407873833315  0.08449007092593291  0.41502376893351983
  0.6660127041891875  -0.0002798910370938601  0.6647723165399302
  0.750168509897073  0.08179046443598925  0.7492527960206253
  0.6657681905534096  0.3339155284044566  0.0014405210073790142
  0.749711614123624  0.41511569909971646  0.08341127838033757
  0.6676881824938286  0.33436119264619246  0.3334691432686778
  0.7481991152211418  0.41850912277492963  0.4172201229781075
  0.6670714503733581  0.331707068032903  0.666216092301265
  0.7505766271454727  0.41765601806584274  0.7503528728622147
  0.6654533029361511  0.6695575397984594  0.00021979212616662913
  0.7502370685558181  0.7503606085616453  0.08016347130114343
  0.6657083651719099  0.6667408432273635  0.3359696982280238
  0.7473983865453975  0.749517899685852  0.41854265623284803
  0.6665263499049585  0.666588293183445  0.6640760527980745
  0.7525089612711424  0.7467991072792797  0.7506511360176759
