supercell                               
   1.0000000000000000     
    -0.0272993482048535    8.1266433639992854    8.1281868439124754
     8.1375156463189153   -0.0545914459697352    8.1554789416773570
     8.1480135773055817    8.1644333927508335   -0.0650893769564024
   Si   Ge
    43    11
Direct
  0.0002119164607706  0.0002235364621512  0.9989156574345017
  0.0820054399882508  0.0873943669476560  0.0819598079916020
  0.0837556234504646  0.0858359434338851  0.4137295031997965
  0.0022458090392448  0.9972191077786405  0.6675766006324864
  0.0862404891786710  0.0804502681062829  0.7497256764625035
  0.9971960787479901  0.3341186481204943  0.0013426975362236
  0.0830290021716991  0.4164853595925067  0.0813295887489502
  0.9996709454456152  0.3323894530490321  0.3365854152982095
  0.0821713662837098  0.4147645360826431  0.4158291244053558
  0.9999574780354905  0.3325489432606048  0.6678542382375241
  0.0832104902877830  0.4136579812749090  0.7528970846011163
  0.0825923469694771  0.7534876359970895  0.0825389094150353
  0.0013650472921753  0.6670913564118877  0.3320587631765832
  0.9980827428128194  0.6669664145447527  0.6674158125949958
  0.0840183414380249  0.7505840889002471  0.7492518609307268
  0.3353170918902819  0.9991427715108117  0.0012074293540678
  0.4189686282088445  0.0807427085225996  0.0839805455240352
  0.4186951403693016  0.0805686090133904  0.4171309446234659
  0.3313419132208182  0.0013439188930349  0.6665730365997717
  0.4206834620761200  0.4158161904668134  0.0810579806961442
  0.3342754686492455  0.3339680984638846  0.3294748907721328
  0.4150616753739271  0.4160460718913086  0.4173900677606923
  0.4154517669314330  0.4184717960025139  0.7485780837235581
  0.3323422831152598  0.6676470929296983  0.3332549515103480
  0.4172355913924051  0.7522288975652813  0.4174861934052174
  0.4185188764349235  0.7509695070187590  0.7479380528901984
  0.6662859575747575  0.9997423689199039  0.9976167626931698
  0.7530715673386155  0.0815404975426617  0.0834643612156967
  0.6663444157833993  0.0001208001700093  0.3320585499487905
  0.7505471013656546  0.0797474087205359  0.4186835877487596
  0.6636884360252608  0.0000433996419247  0.6683189460392356
  0.7490860622940616  0.0848890594272191  0.7512547885550731
  0.6639096824600372  0.3336968377211562  0.0020326320174746
  0.6659639366332470  0.3357866544915566  0.3322347542378168
  0.7525651058245586  0.4158984886624637  0.4154902838359575
  0.6681454104365727  0.3347663629779873  0.6625888095208694
  0.7511960437421621  0.4184288119385897  0.7473120089852117
  0.6655354647972942  0.6676447972442929  0.9981081565416545
  0.7507375790411714  0.7516388415739357  0.0830978954332053
  0.6673418994059119  0.6661686888874243  0.3319452302424892
  0.7496363520870020  0.7484997245967406  0.4190208443088821
  0.6656781306535535  0.6660233909534909  0.6657224341146915
  0.7490817281081164  0.7505675415454718  0.7497815848782849
  0.0023512756404855  0.0000872797804590  0.3310667694207865
  0.0016140394870945  0.6678888123308226  0.9973509734993513
  0.0845383900593717  0.7513748009695149  0.4168735350609865
  0.3318803065726641  0.0000254876058463  0.3331061091034044
  0.4177245403687451  0.0832712991692262  0.7483520850949787
  0.3298673026068784  0.3336684360662687  0.0025374855199871
  0.3330665379566682  0.3307406772369816  0.6692669021319233
  0.3328491719859201  0.6669709818778387  0.0024436137804074
  0.4154234282130105  0.7526497151502056  0.0833026604735139
  0.3307604053213495  0.6661247193373683  0.6681296627965878
  0.7489472113063655  0.4173847001126205  0.0839215552376302

  0.00000000E+00  0.00000000E+00  0.00000000E+00
  0.00000000E+00  0.00000000E+00  0.00000000E+00
  0.00000000E+00  0.00000000E+00  0.00000000E+00
  0.00000000E+00  0.00000000E+00  0.00000000E+00
  0.00000000E+00  0.00000000E+00  0.00000000E+00
  0.00000000E+00  0.00000000E+00  0.00000000E+00
  0.00000000E+00  0.00000000E+00  0.00000000E+00
  0.00000000E+00  0.00000000E+00  0.00000000E+00
  0.00000000E+00  0.00000000E+00  0.00000000E+00
  0.00000000E+00  0.00000000E+00  0.00000000E+00
  0.00000000E+00  0.00000000E+00  0.00000000E+00
  0.00000000E+00  0.00000000E+00  0.00000000E+00
  0.00000000E+00  0.00000000E+00  0.00000000E+00
  0.00000000E+00  0.00000000E+00  0.00000000E+00
  0.00000000E+00  0.00000000E+00  0.00000000E+00
  0.00000000E+00  0.00000000E+00  0.00000000E+00
  0.00000000E+00  0.00000000E+00  0.00000000E+00
  0.00000000E+00  0.00000000E+00  0.00000000E+00
  0.00000000E+00  0.00000000E+00  0.00000000E+00
  0.00000000E+00  0.00000000E+00  0.00000000E+00
  0.00000000E+00  0.00000000E+00  0.00000000E+00
  0.00000000E+00  0.00000000E+00  0.00000000E+00
  0.00000000E+00  0.00000000E+00  0.00000000E+00
  0.00000000E+00  0.00000000E+00  0.00000000E+00
  0.00000000E+00  0.00000000E+00  0.00000000E+00
  0.00000000E+00  0.00000000E+00  0.00000000E+00
  0.00000000E+00  0.00000000E+00  0.00000000E+00
  0.00000000E+00  0.00000000E+00  0.00000000E+00
  0.00000000E+00  0.00000000E+00  0.00000000E+00
  0.00000000E+00  0.00000000E+00  0.00000000E+00
  0.00000000E+00  0.00000000E+00  0.00000000E+00
  0.00000000E+00  0.00000000E+00  0.00000000E+00
  0.00000000E+00  0.00000000E+00  0.00000000E+00
  0.00000000E+00  0.00000000E+00  0.00000000E+00
  0.00000000E+00  0.00000000E+00  0.00000000E+00
  0.00000000E+00  0.00000000E+00  0.00000000E+00
  0.00000000E+00  0.00000000E+00  0.00000000E+00
  0.00000000E+00  0.00000000E+00  0.00000000E+00
  0.00000000E+00  0.00000000E+00  0.00000000E+00
  0.00000000E+00  0.00000000E+00  0.00000000E+00
  0.00000000E+00  0.00000000E+00  0.00000000E+00
  0.00000000E+00  0.00000000E+00  0.00000000E+00
  0.00000000E+00  0.00000000E+00  0.00000000E+00
  0.00000000E+00  0.00000000E+00  0.00000000E+00
  0.00000000E+00  0.00000000E+00  0.00000000E+00
  0.00000000E+00  0.00000000E+00  0.00000000E+00
  0.00000000E+00  0.00000000E+00  0.00000000E+00
  0.00000000E+00  0.00000000E+00  0.00000000E+00
  0.00000000E+00  0.00000000E+00  0.00000000E+00
  0.00000000E+00  0.00000000E+00  0.00000000E+00
  0.00000000E+00  0.00000000E+00  0.00000000E+00
  0.00000000E+00  0.00000000E+00  0.00000000E+00
  0.00000000E+00  0.00000000E+00  0.00000000E+00
  0.00000000E+00  0.00000000E+00  0.00000000E+00
