&control
calculation = 'scf'
    restart_mode='from_scratch',
prefix = 'PREFIX'
    tstress = .true.
    tprnfor = .true.
    pseudo_dir = '/users/kfg/psuedo/gbrv_1.5/',
  outdir = '/tmp/TMPDIR'
    disk_io = 'low'
    wf_collect = .true.
    verbosity = 'low'    
 /
&system
    ibrav=  0, 
    nat=  1, 
    ntyp= 1,
ecutwfc = 35,
    ecutrho = 200,
    q2sigma = 1
ecfixed = 34.5,
    qcutz = 800
occupations = "smearing",
degauss = 0.05
    lda_plus_u = .false.
 /
&electrons
    diagonalization='david'
    mixing_mode = 'local-TF'
    mixing_beta = 0.3
conv_thr = 1d-10
 /
&ions
  ion_dynamics='bfgs',
/
&cell
 cell_dynamics = 'bfgs'
/
ATOMIC_SPECIES
Al 26.9815386 al.pbesol.UPF
ATOMIC_POSITIONS crystal
Al 0.000000000 0.000000000 0.000000000   
CELL_PARAMETERS
   3.797181620   3.797181620  -0.000000000
   3.797181620  -0.000000000   3.797181620
  -0.000000000   3.797181620   3.797181620
K_POINTS automatic
18 18 18 0 0 0
