supercell                               
   1.0000000000000000     
     0.0000000000000000    8.1994254902135530    8.1994254902135530
     8.1994254902135530    0.0000000000000000    8.1994254902135530
     8.1994254902135530    8.1994254902135530    0.0000000000000000
   Si   Ge
    34    20
Direct
  0.0027571762134357  0.0023542707751574  0.3287459736616327
  0.0805677760763928  0.4233434434148649  0.0815849259397297
  0.0031645194408796  0.3326807844854400  0.3292136337990428
  0.0855486207098934  0.4149067837526985  0.4159376069804992
  0.0025503980932768  0.3357657016139370  0.6690947872479569
  0.0827326608673715  0.4172651955751263  0.7488031737562153
  0.0016269389259591  0.6613605013478718  0.0009417132022165
  0.0824946406922393  0.7477102085047207  0.0902355144870484
  0.0893723157620414  0.7489470168934602  0.4127671648591260
  0.0788160671003126  0.7520194118125119  0.7495209718407736
  0.3348787455391502  0.9955174298573084  0.9980918127515892
  0.4197917889575606  0.0854490074363810  0.0801988949406933
  0.4182605705445255  0.0852484343121063  0.4174741118980521
  0.3401524392657720  0.9958498539239784  0.6662162975391865
  0.4137014509389374  0.0859788066292637  0.7528255463486602
  0.3321609617688708  0.3292364002523271  0.0057303097019883
  0.4206004585575940  0.4132528281989920  0.0836382042205557
  0.3294464283091898  0.3337673305846849  0.3325158165746345
  0.3275783025358905  0.3361168143523372  0.6684478756429897
  0.3339713027728806  0.6718299949750275  0.0005037826143450
  0.4222738704321927  0.7466055616059322  0.4144941293273234
  0.3291227127533958  0.6657470838953543  0.6721059162816019
  0.4126661794382471  0.7480362399558231  0.7540349313991896
  0.7521798156831068  0.0874250028486614  0.0792175968900253
  0.6679117305567388  0.9928793132331535  0.3361592369982773
  0.7547519783027496  0.0844027569429429  0.4173938077982626
  0.6627214489067370  0.0022619211201089  0.6681879392069874
  0.7489869191160423  0.4143229670139590  0.0886853354108723
  0.6667552417270528  0.3351305641155733  0.3276838023836035
  0.6684418012506441  0.3344904086711509  0.6677116645730266
  0.6651367186074140  0.6656900029117878  0.0058285073836544
  0.7472675700804174  0.7556722792615247  0.0826277051269884
  0.6618431602571277  0.6687141190038872  0.3372727185695581
  0.7444279527245357  0.7505646597261730  0.4161122129950314
  0.9983086615477816  0.0037644292631498  0.9998522580462748
  0.0867230496103630  0.0791673984442625  0.0861697520806786
  0.0851468061172298  0.0773938512749197  0.4194186077539612
  0.0015978181270597  0.0038097666674446  0.6629121986329096
  0.0861993725037564  0.0856707421674940  0.7492192917179281
  0.0004389591049687  0.3298675386377425  0.9998379880138728
  0.0039935695565774  0.6671059583761476  0.3296853742629366
  0.9979558310215992  0.6623113408474950  0.6744044678349539
  0.3319946126041060  0.9977681221752945  0.3369053641203053
  0.4207048765480934  0.4104881531455078  0.4175725895678113
  0.4185038817017812  0.4169675433339677  0.7529777828761723
  0.4243455381842196  0.7474300421089808  0.0805693072270586
  0.3301809230469743  0.6669958742986211  0.3309724986907767
  0.6592811636337643  0.0023412642925464  0.0021092236843714
  0.7534253153274122  0.0832571363478181  0.7496519636292760
  0.6623452165192347  0.3379601785851705  0.9996905586271652
  0.7521513805607682  0.4177642351080451  0.4151695851426140
  0.7493056635863624  0.4212492190934256  0.7516117112862162
  0.6701047663206410  0.6679316898728089  0.6599944104679523
  0.7487646683032025  0.7551691244316530  0.7491932506232573

  0.00000000E+00  0.00000000E+00  0.00000000E+00
  0.00000000E+00  0.00000000E+00  0.00000000E+00
  0.00000000E+00  0.00000000E+00  0.00000000E+00
  0.00000000E+00  0.00000000E+00  0.00000000E+00
  0.00000000E+00  0.00000000E+00  0.00000000E+00
  0.00000000E+00  0.00000000E+00  0.00000000E+00
  0.00000000E+00  0.00000000E+00  0.00000000E+00
  0.00000000E+00  0.00000000E+00  0.00000000E+00
  0.00000000E+00  0.00000000E+00  0.00000000E+00
  0.00000000E+00  0.00000000E+00  0.00000000E+00
  0.00000000E+00  0.00000000E+00  0.00000000E+00
  0.00000000E+00  0.00000000E+00  0.00000000E+00
  0.00000000E+00  0.00000000E+00  0.00000000E+00
  0.00000000E+00  0.00000000E+00  0.00000000E+00
  0.00000000E+00  0.00000000E+00  0.00000000E+00
  0.00000000E+00  0.00000000E+00  0.00000000E+00
  0.00000000E+00  0.00000000E+00  0.00000000E+00
  0.00000000E+00  0.00000000E+00  0.00000000E+00
  0.00000000E+00  0.00000000E+00  0.00000000E+00
  0.00000000E+00  0.00000000E+00  0.00000000E+00
  0.00000000E+00  0.00000000E+00  0.00000000E+00
  0.00000000E+00  0.00000000E+00  0.00000000E+00
  0.00000000E+00  0.00000000E+00  0.00000000E+00
  0.00000000E+00  0.00000000E+00  0.00000000E+00
  0.00000000E+00  0.00000000E+00  0.00000000E+00
  0.00000000E+00  0.00000000E+00  0.00000000E+00
  0.00000000E+00  0.00000000E+00  0.00000000E+00
  0.00000000E+00  0.00000000E+00  0.00000000E+00
  0.00000000E+00  0.00000000E+00  0.00000000E+00
  0.00000000E+00  0.00000000E+00  0.00000000E+00
  0.00000000E+00  0.00000000E+00  0.00000000E+00
  0.00000000E+00  0.00000000E+00  0.00000000E+00
  0.00000000E+00  0.00000000E+00  0.00000000E+00
  0.00000000E+00  0.00000000E+00  0.00000000E+00
  0.00000000E+00  0.00000000E+00  0.00000000E+00
  0.00000000E+00  0.00000000E+00  0.00000000E+00
  0.00000000E+00  0.00000000E+00  0.00000000E+00
  0.00000000E+00  0.00000000E+00  0.00000000E+00
  0.00000000E+00  0.00000000E+00  0.00000000E+00
  0.00000000E+00  0.00000000E+00  0.00000000E+00
  0.00000000E+00  0.00000000E+00  0.00000000E+00
  0.00000000E+00  0.00000000E+00  0.00000000E+00
  0.00000000E+00  0.00000000E+00  0.00000000E+00
  0.00000000E+00  0.00000000E+00  0.00000000E+00
  0.00000000E+00  0.00000000E+00  0.00000000E+00
  0.00000000E+00  0.00000000E+00  0.00000000E+00
  0.00000000E+00  0.00000000E+00  0.00000000E+00
  0.00000000E+00  0.00000000E+00  0.00000000E+00
  0.00000000E+00  0.00000000E+00  0.00000000E+00
  0.00000000E+00  0.00000000E+00  0.00000000E+00
  0.00000000E+00  0.00000000E+00  0.00000000E+00
  0.00000000E+00  0.00000000E+00  0.00000000E+00
  0.00000000E+00  0.00000000E+00  0.00000000E+00
  0.00000000E+00  0.00000000E+00  0.00000000E+00
