supercell
 1.000000
 0.0 8.199425490213553 8.199425490213553
 8.199425490213553 0.0 8.199425490213553
 8.199425490213553 8.199425490213553 0.0
  Si  Ge  
  34  20  
Direct
  0.002757176213434596  0.0023542707751590046  0.3287459736616355
  0.0805677760763932  0.4233434434148676  0.08158492593972866
  0.0031645194408811417  0.33268078448543675  0.3292136337990412
  0.08554862070989167  0.41490678375269574  0.4159376069804986
  0.0025503980932771453  0.3357657016139345  0.6690947872479561
  0.08273266086737091  0.4172651955751246  0.7488031737562169
  0.0016269389259560008  0.6613605013478746  0.0009417132022176977
  0.08249464069224022  0.7477102085047183  0.0902355144870487
  0.08937231576204052  0.7489470168934613  0.41276716485912535
  0.07881606710031575  0.7520194118125124  0.7495209718407765
  0.3348787455391502  -0.004482570142690684  -0.0019081872484086049
  0.4197917889575632  0.08544900743638431  0.08019889494069571
  0.41826057054452676  0.08524843431210555  0.417474111898055
  0.34015243926576966  -0.00415014607602418  0.6662162975391882
  0.4137014509389373  0.08597880662926552  0.7528255463486591
  0.332160961768874  0.3292364002523278  0.00573030970198557
  0.4206004585575909  0.41325282819899156  0.0836382042205569
  0.32944642830918897  0.33376733058468594  0.33251581657463214
  0.32757830253589043  0.33611681435233626  0.6684478756429924
  0.3339713027728811  0.6718299949750289  0.000503782614347803
  0.4222738704321891  0.7466055616059297  0.4144941293273221
  0.3291227127533967  0.6657470838953559  0.6721059162816014
  0.4126661794382488  0.7480362399558215  0.7540349313991874
  0.7521798156831045  0.0874250028486594  0.07921759689002539
  0.6679117305567368  -0.00712068676684785  0.33615923699827976
  0.7547519783027481  0.08440275694294258  0.41739380779826313
  0.6627214489067383  0.0022619211201101996  0.6681879392069852
  0.748986919116045  0.4143229670139621  0.08868533541087309
  0.6667552417270559  0.3351305641155744  0.32768380238360584
  0.6684418012506456  0.3344904086711534  0.667711664573025
  0.6651367186074175  0.6656900029117878  0.0058285073836579215
  0.7472675700804208  0.7556722792615234  0.08262770512698825
  0.6618431602571261  0.6687141190038869  0.33727271856956087
  0.7444279527245372  0.7505646597261761  0.41611221299503
  -0.0016913384522205571  0.003764429263152414  -0.00014774195372792103
  0.08672304961035954  0.07916739844425963  0.08616975208068164
  0.085146806117227  0.07739385127491913  0.4194186077539619
  0.0015978181270625783  0.0038097666674471124  0.662912198632909
  0.08619937250375515  0.08567074216749321  0.7492192917179248
  0.0004389591049684949  0.32986753863774343  -0.00016201198612952883
  0.00399356955657848  0.6671059583761484  0.32968537426293637
  -0.0020441689784004846  0.6623113408474943  0.6744044678349548
  0.331994612604107  -0.0022318778247057136  0.3369053641203042
  0.4207048765480943  0.4104881531455046  0.41757258956781224
  0.41850388170178177  0.416967543333966  0.752977782876174
  0.4243455381842204  0.7474300421089793  0.08056930722705724
  0.3301809230469711  0.6669958742986235  0.33097249869077444
  0.6592811636337634  0.0023412642925496607  0.0021092236843683887
  0.7534253153274129  0.08325713634781534  0.7496519636292783
  0.6623452165192323  0.3379601785851738  -0.0003094413728339518
  0.7521513805607665  0.41776423510804833  0.4151695851426146
  0.74930566358636  0.4212492190934263  0.7516117112862166
  0.6701047663206425  0.667931689872806  0.659994410467954
  0.7487646683031997  0.7551691244316532  0.7491932506232559
