supercell                               
   1.0000000000000000     
     0.0000000000000000    8.1994254902135530    8.1994254902135530
     8.1994254902135530    0.0000000000000000    8.1994254902135530
     8.1994254902135530    8.1994254902135530    0.0000000000000000
   Si   Ge
    34    20
Direct
  0.0802989742482012  0.0806640343381773  0.4161966147462337
  0.9979200465164126  0.9982083324193880  0.6738308062210692
  0.0802173355056439  0.0835835639702580  0.7483866169803122
  0.9981932253570278  0.3343907382936990  0.3365974333687873
  0.0821618961948829  0.4115433998737217  0.4191258979283603
  0.9970238426821112  0.3298597824731857  0.6703784853039849
  0.9985496499457867  0.6648647252574307  0.0008618345975435
  0.9968230417606492  0.6681744119503108  0.3335377608925612
  0.9994101639625725  0.6623729559207092  0.6718411188407813
  0.0833387452159187  0.7439217883392644  0.7523661997531050
  0.3383131563693027  0.9961309574581918  0.9976208088629406
  0.4161718996612294  0.0786962158041931  0.0848636395969393
  0.3298630551906854  0.0027318639569884  0.6686570572142756
  0.3355735948930629  0.3362563217790253  0.9919082810666850
  0.4238874150770968  0.4157543848631207  0.0778868629911074
  0.3347127078363243  0.3285886911598226  0.3363855843323620
  0.4177259865865892  0.4192554824332575  0.4157646805109607
  0.3384274196485748  0.3314109128662750  0.6665465399118631
  0.4194453536749094  0.4193823447218819  0.7514206662410459
  0.3318193542339287  0.6705901145120379  0.0006673834924129
  0.3312456389291469  0.6683636189828306  0.6710115383004975
  0.4200561024202329  0.7487889357562310  0.7510833910110222
  0.6670949605026806  0.9944867051927773  0.0054759272779989
  0.6639210495988124  0.0037341024580897  0.3301182442249129
  0.6685808269368962  0.0030270736714755  0.6625658491273043
  0.7539962802156310  0.4152481046020995  0.0798638593559104
  0.6676423387284416  0.3371120007563491  0.3340590946972810
  0.6645608855974672  0.3343976022801201  0.6720499384413543
  0.7483117669361334  0.4153632296580554  0.7505557437454939
  0.7509327838062276  0.7479137414858954  0.0802444512651874
  0.6657192702385686  0.6697024117433727  0.3321543969840732
  0.7505766944355514  0.7509936590812814  0.4182326042046540
  0.6692654136867304  0.6627304669280960  0.6678026091376310
  0.7532225993923305  0.7488137851900305  0.7506367766815458
  0.0072490661646754  0.9962231785148887  0.9978570156035858
  0.0837379774352840  0.0819576271272169  0.0823142942816517
  0.9980489573696190  0.0001466736604741  0.3386617087542447
  0.9999289420222297  0.3357668159936367  0.9943972436256843
  0.0824460812047576  0.4194984346021755  0.0787104727268328
  0.0857880655890213  0.4112022576161323  0.7492484427030917
  0.0866018324684887  0.7469462008864838  0.0816381702156619
  0.0893111962272428  0.7485159027551589  0.4141637799522968
  0.3296813070322955  0.0075620643189822  0.3314286451610826
  0.4216427047956728  0.0845628181849847  0.4099917681884762
  0.4117210973900498  0.0866638829784208  0.7512033421743212
  0.4135370707069939  0.7479129548023664  0.0816515042161399
  0.3359251490681316  0.6638934999495021  0.3325776696601679
  0.4135441791353927  0.7503179980674730  0.4139573793042430
  0.7459730123853063  0.0862199312109340  0.0842103719941178
  0.7485085390136845  0.0810212521960523  0.4220612501807608
  0.7526838845495831  0.0839705727088145  0.7513371967671532
  0.6668630741058550  0.3365130017674787  0.0009113392906173
  0.7535912351458478  0.4172943419539052  0.4135240178099409
  0.6674374326127932  0.6670433608848469  0.0054905008456814

  0.00000000E+00  0.00000000E+00  0.00000000E+00
  0.00000000E+00  0.00000000E+00  0.00000000E+00
  0.00000000E+00  0.00000000E+00  0.00000000E+00
  0.00000000E+00  0.00000000E+00  0.00000000E+00
  0.00000000E+00  0.00000000E+00  0.00000000E+00
  0.00000000E+00  0.00000000E+00  0.00000000E+00
  0.00000000E+00  0.00000000E+00  0.00000000E+00
  0.00000000E+00  0.00000000E+00  0.00000000E+00
  0.00000000E+00  0.00000000E+00  0.00000000E+00
  0.00000000E+00  0.00000000E+00  0.00000000E+00
  0.00000000E+00  0.00000000E+00  0.00000000E+00
  0.00000000E+00  0.00000000E+00  0.00000000E+00
  0.00000000E+00  0.00000000E+00  0.00000000E+00
  0.00000000E+00  0.00000000E+00  0.00000000E+00
  0.00000000E+00  0.00000000E+00  0.00000000E+00
  0.00000000E+00  0.00000000E+00  0.00000000E+00
  0.00000000E+00  0.00000000E+00  0.00000000E+00
  0.00000000E+00  0.00000000E+00  0.00000000E+00
  0.00000000E+00  0.00000000E+00  0.00000000E+00
  0.00000000E+00  0.00000000E+00  0.00000000E+00
  0.00000000E+00  0.00000000E+00  0.00000000E+00
  0.00000000E+00  0.00000000E+00  0.00000000E+00
  0.00000000E+00  0.00000000E+00  0.00000000E+00
  0.00000000E+00  0.00000000E+00  0.00000000E+00
  0.00000000E+00  0.00000000E+00  0.00000000E+00
  0.00000000E+00  0.00000000E+00  0.00000000E+00
  0.00000000E+00  0.00000000E+00  0.00000000E+00
  0.00000000E+00  0.00000000E+00  0.00000000E+00
  0.00000000E+00  0.00000000E+00  0.00000000E+00
  0.00000000E+00  0.00000000E+00  0.00000000E+00
  0.00000000E+00  0.00000000E+00  0.00000000E+00
  0.00000000E+00  0.00000000E+00  0.00000000E+00
  0.00000000E+00  0.00000000E+00  0.00000000E+00
  0.00000000E+00  0.00000000E+00  0.00000000E+00
  0.00000000E+00  0.00000000E+00  0.00000000E+00
  0.00000000E+00  0.00000000E+00  0.00000000E+00
  0.00000000E+00  0.00000000E+00  0.00000000E+00
  0.00000000E+00  0.00000000E+00  0.00000000E+00
  0.00000000E+00  0.00000000E+00  0.00000000E+00
  0.00000000E+00  0.00000000E+00  0.00000000E+00
  0.00000000E+00  0.00000000E+00  0.00000000E+00
  0.00000000E+00  0.00000000E+00  0.00000000E+00
  0.00000000E+00  0.00000000E+00  0.00000000E+00
  0.00000000E+00  0.00000000E+00  0.00000000E+00
  0.00000000E+00  0.00000000E+00  0.00000000E+00
  0.00000000E+00  0.00000000E+00  0.00000000E+00
  0.00000000E+00  0.00000000E+00  0.00000000E+00
  0.00000000E+00  0.00000000E+00  0.00000000E+00
  0.00000000E+00  0.00000000E+00  0.00000000E+00
  0.00000000E+00  0.00000000E+00  0.00000000E+00
  0.00000000E+00  0.00000000E+00  0.00000000E+00
  0.00000000E+00  0.00000000E+00  0.00000000E+00
  0.00000000E+00  0.00000000E+00  0.00000000E+00
  0.00000000E+00  0.00000000E+00  0.00000000E+00
