supercell                               
   1.0000000000000000     
     0.0000000000000000    8.1994254902135530    8.1994254902135530
     8.1994254902135530    0.0000000000000000    8.1994254902135530
     8.1994254902135530    8.1994254902135530    0.0000000000000000
   Si   Ge
    39    15
Direct
  0.0866561602581299  0.0792931944516653  0.0813256275600907
  0.9995213377334764  0.0028794121602331  0.3304162533650938
  0.0814437822314957  0.0868529075690105  0.4169329763289724
  0.0798461291510222  0.0860734144634634  0.7504103426063580
  0.9961330233267915  0.3375836318762353  0.0017808148702798
  0.0846980645611026  0.4198843638179852  0.4125589310827564
  0.0032757377745156  0.3349166205631917  0.6616199978051682
  0.0025843732257442  0.6683211763227845  0.9957680820922619
  0.9964645107130394  0.6703960246879461  0.3311207809322454
  0.0865246666765458  0.7511358391271798  0.4192687871254961
  0.0028117030977555  0.6670119110694301  0.6601985003690416
  0.0819629101423516  0.7484573436937154  0.7536252614999128
  0.3397126915195230  0.9988377019570436  0.9982352675630395
  0.4169827631139214  0.0817987254247754  0.0831756171625244
  0.3310515998930015  0.9985680683781055  0.3389845235105824
  0.4176102382556053  0.0810009098048852  0.4154068111561529
  0.3307272711771176  0.0014632818046110  0.6670520925697474
  0.4103868833263107  0.0832927747232972  0.7498663325363353
  0.3330002490730379  0.3289338213500272  0.0002963760085706
  0.3270547613505812  0.3377181652806129  0.3351518862854022
  0.4123828547237096  0.4172718948762011  0.4202734758110509
  0.3337149426070170  0.3381927354196250  0.6617866539120598
  0.4108279025555035  0.4170795147104869  0.7510182296812928
  0.3347601630750674  0.6657309501619295  0.9957509027142635
  0.4195774759290813  0.7484245257277209  0.0812460199093437
  0.3332507359227890  0.6691145916050374  0.3334264258262678
  0.4207844477466836  0.7519085032005748  0.4171588971442972
  0.4144584617568796  0.7497054590974557  0.7565660541736108
  0.6608671032668454  0.0033637199394647  0.9994056874435699
  0.6679476185032414  0.0041107522454382  0.3343192222862541
  0.7514955490624970  0.0806005349225174  0.4169952026675148
  0.7435986796789962  0.0841452982763400  0.7545717086752362
  0.7521408506459863  0.4207126843905939  0.4117592536077552
  0.6675505420014503  0.3345159516510705  0.6596875024366753
  0.7508903205667252  0.4194249372339343  0.7466321600840331
  0.6685802221810988  0.6597313453377467  0.0017186415265797
  0.6688127409696492  0.6605882790806277  0.3346475675736400
  0.6699779426170451  0.6668796226555429  0.6633715411167955
  0.7497144028682996  0.7455416419335066  0.7556608931739248
  0.9986660173449451  0.0040592103642609  0.9949827574665804
  0.9999159941535964  0.0047377129065893  0.6642605402819299
  0.0797045459672390  0.4166950205992563  0.0886429084565208
  0.0050409336871127  0.3329474297025854  0.3325175813243959
  0.0806386500047296  0.4246370718302614  0.7479452203543389
  0.0824803137995218  0.7556927563671323  0.0840194405852586
  0.4198954055151489  0.4183011489872328  0.0860392415932765
  0.3288210576258166  0.6664445905722687  0.6690614081370398
  0.7490869786510927  0.0845724752403711  0.0788673836511862
  0.6634956257896434  0.0007810457019630  0.6674175648897318
  0.6655226419892131  0.3377501968586358  0.9984311815065467
  0.7501081928999795  0.4194671545909259  0.0817977389757019
  0.6682719154147989  0.3362894941023740  0.3285323713584560
  0.7548700433916906  0.7472723793248122  0.0843763764078886
  0.7505288052826060  0.7464759665164991  0.4219350602068559

  0.00000000E+00  0.00000000E+00  0.00000000E+00
  0.00000000E+00  0.00000000E+00  0.00000000E+00
  0.00000000E+00  0.00000000E+00  0.00000000E+00
  0.00000000E+00  0.00000000E+00  0.00000000E+00
  0.00000000E+00  0.00000000E+00  0.00000000E+00
  0.00000000E+00  0.00000000E+00  0.00000000E+00
  0.00000000E+00  0.00000000E+00  0.00000000E+00
  0.00000000E+00  0.00000000E+00  0.00000000E+00
  0.00000000E+00  0.00000000E+00  0.00000000E+00
  0.00000000E+00  0.00000000E+00  0.00000000E+00
  0.00000000E+00  0.00000000E+00  0.00000000E+00
  0.00000000E+00  0.00000000E+00  0.00000000E+00
  0.00000000E+00  0.00000000E+00  0.00000000E+00
  0.00000000E+00  0.00000000E+00  0.00000000E+00
  0.00000000E+00  0.00000000E+00  0.00000000E+00
  0.00000000E+00  0.00000000E+00  0.00000000E+00
  0.00000000E+00  0.00000000E+00  0.00000000E+00
  0.00000000E+00  0.00000000E+00  0.00000000E+00
  0.00000000E+00  0.00000000E+00  0.00000000E+00
  0.00000000E+00  0.00000000E+00  0.00000000E+00
  0.00000000E+00  0.00000000E+00  0.00000000E+00
  0.00000000E+00  0.00000000E+00  0.00000000E+00
  0.00000000E+00  0.00000000E+00  0.00000000E+00
  0.00000000E+00  0.00000000E+00  0.00000000E+00
  0.00000000E+00  0.00000000E+00  0.00000000E+00
  0.00000000E+00  0.00000000E+00  0.00000000E+00
  0.00000000E+00  0.00000000E+00  0.00000000E+00
  0.00000000E+00  0.00000000E+00  0.00000000E+00
  0.00000000E+00  0.00000000E+00  0.00000000E+00
  0.00000000E+00  0.00000000E+00  0.00000000E+00
  0.00000000E+00  0.00000000E+00  0.00000000E+00
  0.00000000E+00  0.00000000E+00  0.00000000E+00
  0.00000000E+00  0.00000000E+00  0.00000000E+00
  0.00000000E+00  0.00000000E+00  0.00000000E+00
  0.00000000E+00  0.00000000E+00  0.00000000E+00
  0.00000000E+00  0.00000000E+00  0.00000000E+00
  0.00000000E+00  0.00000000E+00  0.00000000E+00
  0.00000000E+00  0.00000000E+00  0.00000000E+00
  0.00000000E+00  0.00000000E+00  0.00000000E+00
  0.00000000E+00  0.00000000E+00  0.00000000E+00
  0.00000000E+00  0.00000000E+00  0.00000000E+00
  0.00000000E+00  0.00000000E+00  0.00000000E+00
  0.00000000E+00  0.00000000E+00  0.00000000E+00
  0.00000000E+00  0.00000000E+00  0.00000000E+00
  0.00000000E+00  0.00000000E+00  0.00000000E+00
  0.00000000E+00  0.00000000E+00  0.00000000E+00
  0.00000000E+00  0.00000000E+00  0.00000000E+00
  0.00000000E+00  0.00000000E+00  0.00000000E+00
  0.00000000E+00  0.00000000E+00  0.00000000E+00
  0.00000000E+00  0.00000000E+00  0.00000000E+00
  0.00000000E+00  0.00000000E+00  0.00000000E+00
  0.00000000E+00  0.00000000E+00  0.00000000E+00
  0.00000000E+00  0.00000000E+00  0.00000000E+00
  0.00000000E+00  0.00000000E+00  0.00000000E+00
