supercell                               
   1.0000000000000000     
     0.0000000000000000    8.2092659212975505    8.2092659212975505
     8.2092659212975505    0.0000000000000000    8.2092659212975505
     8.2092659212975505    8.2092659212975505    0.0000000000000000
   Si   Ge
    53     1
Direct
  0.0848125798283876  0.0848125798283876  0.0848125798283876
  0.0000079293132022  0.0000079293132022  0.3339125928616521
  0.0833221466340781  0.0833221466340781  0.4166778533659218
  0.0000079293132022  0.0000079293132022  0.6660715485119434
  0.0848125798283876  0.0848125798283876  0.7455622605148442
  0.0000079293132022  0.3339125928616521  0.0000079293132022
  0.0833221466340781  0.4166778533659218  0.0833221466340781
  0.0000050535186279  0.3333316488271263  0.3333316488271263
  0.0833221466340781  0.4166778533659218  0.4166778533659218
  0.0000079293132022  0.3339125928616521  0.6660715485119434
  0.0834194066486574  0.4166114211975665  0.7499845860768881
  0.0000079293132022  0.6660715485119434  0.0000079293132022
  0.0848125798283876  0.7455622605148442  0.0848125798283876
  0.0000079293132022  0.6660715485119434  0.3339125928616521
  0.0834194066486574  0.7499845860768881  0.4166114211975665
  0.0000148190768591  0.6666617269743781  0.6666617269743781
  0.0834194066486574  0.7499845860768881  0.7499845860768881
  0.3339125928616521  0.0000079293132022  0.0000079293132022
  0.4166778533659218  0.0833221466340781  0.0833221466340781
  0.3333316488271263  0.0000050535186279  0.3333316488271263
  0.4166778533659218  0.0833221466340781  0.4166778533659218
  0.3339125928616521  0.0000079293132022  0.6660715485119434
  0.4166114211975665  0.0834194066486574  0.7499845860768881
  0.3333316488271263  0.3333316488271263  0.0000050535186279
  0.4166778533659218  0.4166778533659218  0.0833221466340781
  0.3333316488271263  0.3333316488271263  0.3333316488271263
  0.4166561391609878  0.4166561391609878  0.4166561391609878
  0.3333718891530212  0.3333718891530212  0.6666281108469786
  0.4166561391609878  0.4166561391609878  0.7500315825170292
  0.3339125928616521  0.6660715485119434  0.0000079293132022
  0.4166114211975665  0.7499845860768881  0.0834194066486574
  0.3333718891530212  0.6666281108469786  0.3333718891530212
  0.4166561391609878  0.7500315825170292  0.4166561391609878
  0.3333718891530212  0.6666281108469786  0.6666281108469786
  0.4166114211975665  0.7499845860768881  0.7499845860768881
  0.6660715485119434  0.0000079293132022  0.0000079293132022
  0.7455622605148442  0.0848125798283876  0.0848125798283876
  0.6660715485119434  0.0000079293132022  0.3339125928616521
  0.7499845860768881  0.0834194066486574  0.4166114211975665
  0.6666617269743781  0.0000148190768591  0.6666617269743781
  0.7499845860768881  0.0834194066486574  0.7499845860768881
  0.6660715485119434  0.3339125928616521  0.0000079293132022
  0.7499845860768881  0.4166114211975665  0.0834194066486574
  0.6666281108469786  0.3333718891530212  0.3333718891530212
  0.7500315825170292  0.4166561391609878  0.4166561391609878
  0.6666281108469786  0.3333718891530212  0.6666281108469786
  0.7499845860768881  0.4166114211975665  0.7499845860768881
  0.6666617269743781  0.6666617269743781  0.0000148190768591
  0.7499845860768881  0.7499845860768881  0.0834194066486574
  0.6666281108469786  0.6666281108469786  0.3333718891530212
  0.7499845860768881  0.7499845860768881  0.4166114211975665
  0.6666617269743781  0.6666617269743781  0.6666617269743781
  0.7500000000000000  0.7500000000000000  0.7500000000000000
 -0.0000000000000000 -0.0000000000000000 -0.0000000000000000

  0.00000000E+00  0.00000000E+00  0.00000000E+00
  0.00000000E+00  0.00000000E+00  0.00000000E+00
  0.00000000E+00  0.00000000E+00  0.00000000E+00
  0.00000000E+00  0.00000000E+00  0.00000000E+00
  0.00000000E+00  0.00000000E+00  0.00000000E+00
  0.00000000E+00  0.00000000E+00  0.00000000E+00
  0.00000000E+00  0.00000000E+00  0.00000000E+00
  0.00000000E+00  0.00000000E+00  0.00000000E+00
  0.00000000E+00  0.00000000E+00  0.00000000E+00
  0.00000000E+00  0.00000000E+00  0.00000000E+00
  0.00000000E+00  0.00000000E+00  0.00000000E+00
  0.00000000E+00  0.00000000E+00  0.00000000E+00
  0.00000000E+00  0.00000000E+00  0.00000000E+00
  0.00000000E+00  0.00000000E+00  0.00000000E+00
  0.00000000E+00  0.00000000E+00  0.00000000E+00
  0.00000000E+00  0.00000000E+00  0.00000000E+00
  0.00000000E+00  0.00000000E+00  0.00000000E+00
  0.00000000E+00  0.00000000E+00  0.00000000E+00
  0.00000000E+00  0.00000000E+00  0.00000000E+00
  0.00000000E+00  0.00000000E+00  0.00000000E+00
  0.00000000E+00  0.00000000E+00  0.00000000E+00
  0.00000000E+00  0.00000000E+00  0.00000000E+00
  0.00000000E+00  0.00000000E+00  0.00000000E+00
  0.00000000E+00  0.00000000E+00  0.00000000E+00
  0.00000000E+00  0.00000000E+00  0.00000000E+00
  0.00000000E+00  0.00000000E+00  0.00000000E+00
  0.00000000E+00  0.00000000E+00  0.00000000E+00
  0.00000000E+00  0.00000000E+00  0.00000000E+00
  0.00000000E+00  0.00000000E+00  0.00000000E+00
  0.00000000E+00  0.00000000E+00  0.00000000E+00
  0.00000000E+00  0.00000000E+00  0.00000000E+00
  0.00000000E+00  0.00000000E+00  0.00000000E+00
  0.00000000E+00  0.00000000E+00  0.00000000E+00
  0.00000000E+00  0.00000000E+00  0.00000000E+00
  0.00000000E+00  0.00000000E+00  0.00000000E+00
  0.00000000E+00  0.00000000E+00  0.00000000E+00
  0.00000000E+00  0.00000000E+00  0.00000000E+00
  0.00000000E+00  0.00000000E+00  0.00000000E+00
  0.00000000E+00  0.00000000E+00  0.00000000E+00
  0.00000000E+00  0.00000000E+00  0.00000000E+00
  0.00000000E+00  0.00000000E+00  0.00000000E+00
  0.00000000E+00  0.00000000E+00  0.00000000E+00
  0.00000000E+00  0.00000000E+00  0.00000000E+00
  0.00000000E+00  0.00000000E+00  0.00000000E+00
  0.00000000E+00  0.00000000E+00  0.00000000E+00
  0.00000000E+00  0.00000000E+00  0.00000000E+00
  0.00000000E+00  0.00000000E+00  0.00000000E+00
  0.00000000E+00  0.00000000E+00  0.00000000E+00
  0.00000000E+00  0.00000000E+00  0.00000000E+00
  0.00000000E+00  0.00000000E+00  0.00000000E+00
  0.00000000E+00  0.00000000E+00  0.00000000E+00
  0.00000000E+00  0.00000000E+00  0.00000000E+00
  0.00000000E+00  0.00000000E+00  0.00000000E+00
  0.00000000E+00  0.00000000E+00  0.00000000E+00
