supercell                               
   1.0000000000000000     
    -0.0214064327581236    8.1318470095087712    8.2128078517215233
     8.1284655319485353   -0.0599247316368041    8.2513261506002049
     8.1159700357679796    8.1578698122068953   -0.0474292354562485
   Si   Ge
    40    14
Direct
  0.0810212419741418  0.0847540470401356  0.0827222877263694
  0.9986150191669267  0.0019787294290836  0.3329592298907116
  0.0833253161313152  0.0819255148110898  0.7495184259448848
  0.9984602735974946  0.3361599266367818  0.9994334715952675
  0.0847951330019470  0.4177730332761129  0.0792029685557836
  0.0016221739973048  0.3348228097814214  0.3314510438312652
  0.9993069383675888  0.3325660726497546  0.6646434354718380
  0.0004256288107101  0.6663337505101765  0.9989296523094850
  0.0877885916421519  0.7485629116928507  0.0819511499345040
  0.0847452063085115  0.7491620245396433  0.4180861868717116
  0.0009151068840509  0.6666141911480921  0.6639845254075780
  0.0803443067724530  0.7514909424877700  0.7506423018501494
  0.3333120277597317  0.0001443133924042  0.9974546783401692
  0.4175605624343035  0.0844140479956437  0.0818902501260084
  0.3325220802762061  0.0037126700841696  0.3321633355904510
  0.3344534985752574  0.0012263532600016  0.6657294444616113
  0.4182490542521435  0.0849662815505567  0.7477367183226704
  0.3321651247025272  0.3351564019088258  0.0006408966079263
  0.4168947610950298  0.4159680379297015  0.4181346727303392
  0.4141489160660896  0.4160642832300070  0.7526694622006644
  0.3332504432159098  0.6690510454763157  0.9979739355837580
  0.4141126648819764  0.7514197797692432  0.0841960889750695
  0.3341171404705463  0.6681294202996000  0.3320054533537942
  0.3338521843331534  0.6679542193556856  0.6647508710365528
  0.4188871544431478  0.7474558792362416  0.7505728137457623
  0.6675534958649223  0.0019419905272855  0.9987875512459823
  0.6634834389264412  0.0009509111704489  0.3333774136857173
  0.6663648271471558  0.9986946555380882  0.6683541191226539
  0.7488958655486684  0.0849118652805743  0.7482832590770698
  0.7502079842121532  0.4163894498547975  0.0809722346610755
  0.6673756159873889  0.3319792049136439  0.3350100254316857
  0.7532945767117312  0.4163978164214797  0.4165076018630103
  0.6660236585151011  0.3361367338653167  0.6656922647419066
  0.7489798499902065  0.4206973013613862  0.7478695737714389
  0.6677755745819454  0.6673552389862323  0.9974969448504964
  0.7489567743995167  0.7494945187026048  0.0857327357945508
  0.6658101613952283  0.6660329990144618  0.3322302298429989
  0.7482945511943768  0.7495153130096170  0.4162469563280311
  0.6661013170451469  0.6646933263913581  0.6662187533014219
  0.7479982177686395  0.7487805119278690  0.7533298118892731
  0.9989540063620410  0.9991888353442988  0.0013839028102325
  0.0799423317981507  0.0852734614266382  0.4176517756331677
  0.0008920016624927  0.9981458306306195  0.6660090056413139
  0.0846186572558452  0.4166532730910859  0.4178632222049643
  0.0835280840716521  0.4161496098887909  0.7474234786790248
  0.0024722021807051  0.6662815533681083  0.3327274415820156
  0.4163536546924149  0.0823930860502955  0.4149054550488458
  0.4189840257482871  0.4153913211730611  0.0838341718151909
  0.3356231606938138  0.3314011345501058  0.3337842142663874
  0.3326033266762920  0.3340141001796084  0.6668064612869031
  0.4166238465501735  0.7512930148020871  0.4178384418868362
  0.7500910248522317  0.0807925675486203  0.0829311919635956
  0.7495266934063736  0.0806094690069372  0.4167652836755522
  0.6660141285143979  0.3345014044638788  0.0005748981461480

  0.00000000E+00  0.00000000E+00  0.00000000E+00
  0.00000000E+00  0.00000000E+00  0.00000000E+00
  0.00000000E+00  0.00000000E+00  0.00000000E+00
  0.00000000E+00  0.00000000E+00  0.00000000E+00
  0.00000000E+00  0.00000000E+00  0.00000000E+00
  0.00000000E+00  0.00000000E+00  0.00000000E+00
  0.00000000E+00  0.00000000E+00  0.00000000E+00
  0.00000000E+00  0.00000000E+00  0.00000000E+00
  0.00000000E+00  0.00000000E+00  0.00000000E+00
  0.00000000E+00  0.00000000E+00  0.00000000E+00
  0.00000000E+00  0.00000000E+00  0.00000000E+00
  0.00000000E+00  0.00000000E+00  0.00000000E+00
  0.00000000E+00  0.00000000E+00  0.00000000E+00
  0.00000000E+00  0.00000000E+00  0.00000000E+00
  0.00000000E+00  0.00000000E+00  0.00000000E+00
  0.00000000E+00  0.00000000E+00  0.00000000E+00
  0.00000000E+00  0.00000000E+00  0.00000000E+00
  0.00000000E+00  0.00000000E+00  0.00000000E+00
  0.00000000E+00  0.00000000E+00  0.00000000E+00
  0.00000000E+00  0.00000000E+00  0.00000000E+00
  0.00000000E+00  0.00000000E+00  0.00000000E+00
  0.00000000E+00  0.00000000E+00  0.00000000E+00
  0.00000000E+00  0.00000000E+00  0.00000000E+00
  0.00000000E+00  0.00000000E+00  0.00000000E+00
  0.00000000E+00  0.00000000E+00  0.00000000E+00
  0.00000000E+00  0.00000000E+00  0.00000000E+00
  0.00000000E+00  0.00000000E+00  0.00000000E+00
  0.00000000E+00  0.00000000E+00  0.00000000E+00
  0.00000000E+00  0.00000000E+00  0.00000000E+00
  0.00000000E+00  0.00000000E+00  0.00000000E+00
  0.00000000E+00  0.00000000E+00  0.00000000E+00
  0.00000000E+00  0.00000000E+00  0.00000000E+00
  0.00000000E+00  0.00000000E+00  0.00000000E+00
  0.00000000E+00  0.00000000E+00  0.00000000E+00
  0.00000000E+00  0.00000000E+00  0.00000000E+00
  0.00000000E+00  0.00000000E+00  0.00000000E+00
  0.00000000E+00  0.00000000E+00  0.00000000E+00
  0.00000000E+00  0.00000000E+00  0.00000000E+00
  0.00000000E+00  0.00000000E+00  0.00000000E+00
  0.00000000E+00  0.00000000E+00  0.00000000E+00
  0.00000000E+00  0.00000000E+00  0.00000000E+00
  0.00000000E+00  0.00000000E+00  0.00000000E+00
  0.00000000E+00  0.00000000E+00  0.00000000E+00
  0.00000000E+00  0.00000000E+00  0.00000000E+00
  0.00000000E+00  0.00000000E+00  0.00000000E+00
  0.00000000E+00  0.00000000E+00  0.00000000E+00
  0.00000000E+00  0.00000000E+00  0.00000000E+00
  0.00000000E+00  0.00000000E+00  0.00000000E+00
  0.00000000E+00  0.00000000E+00  0.00000000E+00
  0.00000000E+00  0.00000000E+00  0.00000000E+00
  0.00000000E+00  0.00000000E+00  0.00000000E+00
  0.00000000E+00  0.00000000E+00  0.00000000E+00
  0.00000000E+00  0.00000000E+00  0.00000000E+00
  0.00000000E+00  0.00000000E+00  0.00000000E+00
