high sym                                
   1.0000000000000000     
    -0.0000000000000000    2.7331418300711854    2.7331418300711854
     2.7331418300711854    0.0000000000000000    2.7331418300711854
     2.7331418300711854    2.7331418300711854    0.0000000000000000
   Si
     2
Direct
  0.0000000000000000 -0.0000000000000000 -0.0000000000000000
  0.2500000000000000  0.2500000000000000  0.2500000000000000

  0.00000000E+00  0.00000000E+00  0.00000000E+00
  0.00000000E+00  0.00000000E+00  0.00000000E+00
