supercell
 1.000000
 0.0 8.199425490213555 8.199425490213555
 8.199425490213555 0.0 8.199425490213555
 8.199425490213555 8.199425490213555 0.0
  Si  
  54  
Direct
  0.0  0.0  0.0
  0.08333333333333333  0.08333333333333333  0.08333333333333333
  0.0  0.0  0.3333333333333333
  0.08333333333333333  0.08333333333333333  0.41666666666666663
  0.0  0.0  0.6666666666666666
  0.08333333333333333  0.08333333333333333  0.75
  0.0  0.3333333333333333  0.0
  0.08333333333333333  0.41666666666666663  0.08333333333333333
  0.0  0.3333333333333333  0.3333333333333333
  0.08333333333333333  0.41666666666666663  0.41666666666666663
  0.0  0.3333333333333333  0.6666666666666666
  0.08333333333333333  0.41666666666666663  0.75
  0.0  0.6666666666666666  0.0
  0.08333333333333333  0.75  0.08333333333333333
  0.0  0.6666666666666666  0.3333333333333333
  0.08333333333333333  0.75  0.41666666666666663
  0.0  0.6666666666666666  0.6666666666666666
  0.08333333333333333  0.75  0.75
  0.3333333333333333  0.0  0.0
  0.41666666666666663  0.08333333333333333  0.08333333333333333
  0.3333333333333333  0.0  0.3333333333333333
  0.41666666666666663  0.08333333333333333  0.41666666666666663
  0.3333333333333333  0.0  0.6666666666666666
  0.41666666666666663  0.08333333333333333  0.75
  0.3333333333333333  0.3333333333333333  0.0
  0.41666666666666663  0.41666666666666663  0.08333333333333333
  0.3333333333333333  0.3333333333333333  0.3333333333333333
  0.41666666666666663  0.41666666666666663  0.41666666666666663
  0.3333333333333333  0.3333333333333333  0.6666666666666666
  0.41666666666666663  0.41666666666666663  0.75
  0.3333333333333333  0.6666666666666666  0.0
  0.41666666666666663  0.75  0.08333333333333333
  0.3333333333333333  0.6666666666666666  0.3333333333333333
  0.41666666666666663  0.75  0.41666666666666663
  0.3333333333333333  0.6666666666666666  0.6666666666666666
  0.41666666666666663  0.75  0.75
  0.6666666666666666  0.0  0.0
  0.75  0.08333333333333333  0.08333333333333333
  0.6666666666666666  0.0  0.3333333333333333
  0.75  0.08333333333333333  0.41666666666666663
  0.6666666666666666  0.0  0.6666666666666666
  0.75  0.08333333333333333  0.75
  0.6666666666666666  0.3333333333333333  0.0
  0.75  0.41666666666666663  0.08333333333333333
  0.6666666666666666  0.3333333333333333  0.3333333333333333
  0.75  0.41666666666666663  0.41666666666666663
  0.6666666666666666  0.3333333333333333  0.6666666666666666
  0.75  0.41666666666666663  0.75
  0.6666666666666666  0.6666666666666666  0.0
  0.75  0.75  0.08333333333333333
  0.6666666666666666  0.6666666666666666  0.3333333333333333
  0.75  0.75  0.41666666666666663
  0.6666666666666666  0.6666666666666666  0.6666666666666666
  0.75  0.75  0.75
