supercell
 1.000000
 -0.0039410013848897515 2.735982297598265 2.694415267701997
 2.6969694767706587 -0.002221901089946741 2.692696167407054
 2.696005569617601 2.7332992901502644 -0.0012579939368890134
  Si  Ge  
  0  2  
Direct
  -0.0013382264843076759  0.003327722677146754  0.001324408620653694
  0.24720054917707124  0.258063980521513  0.2480489373262892
