supercell
 1.000000
 0.012414187179025146 2.700927320175338 2.688038378129592
 2.7394968355543083 -0.0024925701736769365 2.702945135482294
 2.750857515201166 2.7271947571748982 -0.01385324982053492
  Si  Ge  
  2  0  
Direct
  0.007403511840404533  -0.0058057985310793975  -0.0014770572075555564
  0.2487267472385906  0.2523360666796903  0.25279384101976893
