supercell
 1.000000
 -0.010795244234061706 2.718709183013051 2.7253937124271954
 2.7285352881315323 0.0034381109548302508 2.7111603572383034
 2.7174044899600354 2.693345029652662 0.014568909126327455
  Si  Ge  
  1  1  
Direct
  0.24967643760272937  0.2405874029251548  0.2582251024891971
  0.003367386344431086  -0.007815036607338701  -0.001619533206602403
