supercell
 1.000000
 0.04899720314514026 8.083833850437848 8.036994816173861
 8.229758845169334 -0.04226345163260765 8.12825547095161
 8.179596247665726 8.124931907711987 0.00789914587100033
  Si  Ge  
  39  15  
Direct
  0.08203594722557381  0.08734758550971396  0.08224710319464595
  -0.0016903881164566118  -0.0010657823392193448  0.3351436022414777
  0.08434168923244291  0.08108620737883343  0.4161618579889147
  0.0830539242670829  0.08277668475529096  0.7487693012558071
  -0.0016377159813890875  0.3329611723696159  0.001889820239971496
  0.08396132276424492  0.41732529960800024  0.4130511214903815
  0.0007890005666396504  0.3357789390519055  0.6640308803860071
  0.08304594159333804  0.4156880143632689  0.7522243657567336
  0.0012611823026308264  0.6686115465941465  -0.002620325790692702
  0.08403623665683099  0.7502520545449979  0.08427602153407407
  0.0012005145933339475  0.6638388480976049  0.33370489683644156
  0.08395994096196786  0.7503598097470375  0.4187817118413408
  0.08160131194046637  0.7487723955588578  0.753960537428425
  0.33495462828154365  -0.0023138355483464696  -0.0006884586895418947
  0.33396191342176235  -0.0018329678938326008  0.33285213517810414
  0.41659439576886287  0.08285911279552942  0.4186740094210948
  0.33381615495447664  -0.00094454248775273  0.6670498765258842
  0.4179489734819378  0.08506190507188931  0.7468081681060347
  0.3348729085484211  0.3321782675294976  -0.001190805945006292
  0.33334545004578336  0.33527713574548335  0.3334179219038307
  0.4150935497003882  0.4157922405426632  0.4198790668031947
  0.41735896771707565  0.4180614307567415  0.7475989076656255
  0.33124122420484703  0.6664528153178366  -0.0005278950118464538
  0.33247492030812026  0.6651998675945249  0.33647270809669905
  0.4166562177411174  0.7527610373429828  0.41633862740569194
  0.33150369243914063  0.6670219628919527  0.6658971681663783
  0.4168103955129258  0.7512968709676893  0.7514379234351313
  0.667010432974377  0.0008771026620143776  -0.002804809332225349
  0.7485371457409447  0.0831478796429402  0.08381687206926029
  0.6681769020243001  0.0005439385478631106  0.3310849997099192
  0.7537365673743599  0.08078552868586332  0.4160006729448777
  0.6672755654920888  -0.0016321225162441962  0.6686311599365444
  0.7501388082083272  0.08424304055571015  0.7501144916086553
  0.6637639414993279  0.3364782306220209  -0.0001301580506510064
  0.7506053744163341  0.41816649526664534  0.41543844747363234
  0.6690070865175023  0.3333065467932356  0.6673132946539396
  0.6652981125202492  0.6688908477704878  -2.462617251371764e-05
  0.66734891771856  0.6688667871405647  0.3299769567401058
  0.7522399423436698  0.7506011894500025  0.4133951112595274
  0.0028113452668756017  -0.001369219228268223  -0.0018295484394995896
  0.0029697632840290666  -0.0006375790487046947  0.6665595049254353
  0.08598992873502283  0.41533134804600774  0.08274926093012223
  0.0019013348588349304  0.3342983818321063  0.33366955813055915
  0.0005354410089322683  0.66900730557276  0.664361424629506
  0.41664919393432753  0.08327218418650847  0.08437188875662321
  0.41573613137986637  0.4166852813490874  0.08412120595922366
  0.33534684448771573  0.33302057331082335  0.6653018402270967
  0.41620665189273504  0.7492248845376863  0.08136581957922223
  0.7499337889795885  0.4144853811908071  0.08524729495518427
  0.6654274277224583  0.3356819854873839  0.33174427194969264
  0.7475417177433934  0.4174518279999489  0.751781595335974
  0.7503801991285551  0.7526358472548735  0.08246793807074752
  0.6680568496980098  0.6673548353117448  0.6683798057467191
  0.7517710801984497  0.7510476644203807  0.7472080369008876
