supercell
 1.000000
 -0.02140643275812356 8.131847009508771 8.212807851721523
 8.128465531948535 -0.05992473163680412 8.251326150600205
 8.11597003576798 8.157869812206895 -0.047429235456248504
  Si  Ge  
  40  14  
Direct
  0.08102124197413835  0.08475404704013623  0.08272228772637011
  -0.0013849808330718054  0.0019787294290806805  0.3329592298907104
  0.08332531613131777  0.08192551481109167  0.7495184259448853
  -0.0015397264025026614  0.33615992663678324  -0.0005665284047318697
  0.0847951330019453  0.41777303327611015  0.07920296855578463
  0.0016221739973064364  0.33482280978142454  0.3314510438312686
  -0.0006930616324116456  0.33256607264975746  0.6646434354718359
  0.0004256288107102879  0.6663337505101767  -0.001070347690514506
  0.08778859164215197  0.7485629116928498  0.08195114993450386
  0.08474520630850901  0.7491620245396405  0.418086186871712
  0.0009151068840478338  0.6666141911480954  0.66398452540758
  0.08034430677245091  0.7514909424877707  0.7506423018501471
  0.33331202775972973  0.00014431339240328356  -0.002545321659828903
  0.41756056243430295  0.08441404799564059  0.0818902501260082
  0.33252208027620866  0.0037126700841688953  0.3321633355904511
  0.3344534985752545  0.0012263532599987859  0.6657294444616124
  0.4182490542521449  0.08496628155055647  0.7477367183226679
  0.3321651247025254  0.33515640190882906  0.0006408966079268774
  0.41689476109503093  0.41596803792969855  0.41813467273033966
  0.41414891606608806  0.4160642832300081  0.7526694622006629
  0.333250443215911  0.669051045476316  -0.0020260644162428676
  0.41411266488197446  0.7514197797692466  0.08419608897507147
  0.33411714047054525  0.6681294202996018  0.33200545335379117
  0.33385218433315594  0.6679542193556833  0.6647508710365516
  0.4188871544431457  0.7474558792362439  0.7505728137457609
  0.6675534958649235  0.001941990527283055  -0.001212448754016493
  0.6634834389264398  0.0009509111704516515  0.33337741368571905
  0.6663648271471561  -0.001305344461908775  0.668354119122655
  0.74889586554867  0.08491186528057526  0.7482832590770694
  0.7502079842121547  0.41638944985480003  0.08097223466107883
  0.6673756159873874  0.33197920491364524  0.33501002543168784
  0.7532945767117316  0.41639781642147833  0.41650760186301183
  0.666023658515103  0.33613673386531906  0.6656922647419091
  0.7489798499902055  0.4206973013613885  0.7478695737714374
  0.6677755745819454  0.6673552389862298  -0.0025030551495034414
  0.7489567743995145  0.7494945187026045  0.08573273579454777
  0.6658101613952311  0.666032999014461  0.332230229843002
  0.7482945511943789  0.7495153130096145  0.4162469563280309
  0.6661013170451443  0.66469332639136  0.6662187533014233
  0.7479982177686362  0.7487805119278694  0.7533298118892705
  -0.0010459936379581924  -0.0008111646557042004  0.001383902810232194
  0.07994233179814858  0.08527346142663472  0.4176517756331697
  0.0008920016624907964  -0.0018541693693786745  0.6660090056413106
  0.08461865725584822  0.4166532730910842  0.41786322220496475
  0.08352808407165419  0.41614960988879074  0.7474234786790275
  0.0024722021807057626  0.6662815533681115  0.3327274415820176
  0.4163536546924117  0.0823930860502951  0.4149054550488481
  0.4189840257482865  0.4153913211730621  0.08383417181519437
  0.33562316069381154  0.3314011345501055  0.33378421426638966
  0.3326033266762941  0.33401410017960576  0.666806461286902
  0.4166238465501739  0.7512930148020873  0.4178384418868327
  0.7500910248522294  0.08079256754862324  0.08293119196359838
  0.7495266934063718  0.08060946900693688  0.41676528367555016
  0.6660141285143982  0.3345014044638813  0.0005748981461489722
