supercell
 1.000000
 0.10777004509854926 8.225485175517132 8.112596265079297
 8.160234694170141 0.07426358480553809 8.146102725372307
 8.159020862864827 8.257777804504828 0.07547741611085312
  Si  Ge  
  39  15  
Direct
  0.0005936807222738204  -0.002714001388933105  0.0006377547867500875
  0.08057134849087079  0.0829954857438532  0.0852445798433168
  0.08397741345818216  0.08098474455328351  0.4182822413085164
  0.0004929024114036125  -0.0006060597499532347  0.6662698877846348
  0.08371341145887086  0.4169525498617233  0.07990363280686756
  0.0007587000284995388  0.3355960792426636  0.33286443377408836
  0.0844140354466945  0.41776882414812405  0.41768849228529514
  -0.0024242096461103606  0.3335091568738284  0.6665537306298421
  2.5478962862579197e-05  0.668365354893889  -0.0011582729658267561
  0.08189208876201418  0.7497466878990112  0.08601982050439425
  0.08534061334389226  0.7506918246705712  0.4176487574045958
  0.3317580842252957  0.0033288959377935534  -0.0002835846258696829
  0.3349814064955471  -0.0023419541124112537  0.33377203814171
  0.4166998921077538  0.08500695269935629  0.41591539776
  0.3358444956892936  -1.4309163601635385e-05  0.6661321451846034
  0.4151653768246648  0.08512463635938754  0.7486066277410883
  0.3345002866137603  0.3302090868669817  0.0012752074792637858
  0.4185384601276121  0.4140986115353047  0.08451206975038363
  0.3339906484102578  0.33035144374451664  0.33514491935683594
  0.4155181588415995  0.4160358772270675  0.4153067464040899
  0.4165303635406409  0.41877382163074944  0.7509363656291926
  0.3308239783268838  0.6662440030026815  0.3356570114324633
  0.3339739968293846  0.6643832314233212  0.6665084551188295
  0.4186104335034989  0.7508537053832111  0.7495774315507692
  0.6646651648728034  0.0002450618080775088  -0.00023596145699708218
  0.7476846261589897  0.08412649483592292  0.08570246788764758
  0.6657467051499514  -5.141582859353385e-06  0.3359907649324103
  0.7525239399373316  0.08237495791184611  0.41669209236927435
  0.6661398534648693  7.332625234263094e-05  0.6652611329128832
  0.7493966484350366  0.0823284405198878  0.7520433318456119
  0.7488079358511737  0.41574060036099264  0.08434099146602585
  0.6685833076032885  0.33228725487800187  0.3338105091900761
  0.7481170568046555  0.4175313192839473  0.4189161408310696
  0.6650997538958976  0.3340904330638849  0.6655340595835916
  0.6659749811450965  0.6676087446456445  -0.0012285128294721808
  0.7490010319085669  0.749945800012924  0.08637027510748863
  0.668404820483897  0.6635031082814137  0.333412155635264
  0.7503931798793063  0.7475856453088249  0.41758880023859646
  0.6648983131893499  0.6662380079338793  0.668789952086317
  -0.0011044881419341496  -0.001385921316734725  0.3316492827979824
  0.08193080184898946  0.08357626901251702  0.7487327244895806
  -0.0013825833849448715  0.3334089650705834  0.0009209164332579483
  0.08438006052053904  0.41845463215477174  0.746246966438145
  8.109226927079983e-05  0.6688524421340412  0.33292042119432336
  -0.0003930277397295537  0.6694802755316788  0.6651929500875661
  0.08222361372790571  0.7480299783635224  0.7516970727692077
  0.417142123875156  0.07990245520011173  0.08501971869142143
  0.33286198991056376  0.33296693116910275  0.6647362648428674
  0.33395138242539407  0.6669948740893802  -0.0009111253557385901
  0.4129160986239966  0.7511368995810288  0.08397843413432847
  0.41451227209571995  0.7521482591935771  0.41642934147141486
  0.6656584022723006  0.33235874313528907  0.0042159588813652105
  0.7507633150175883  0.4160827513178029  0.747767664676238
  0.7504702199916685  0.752101937489135  0.75088300090793
