supercell
 1.000000
 0.007025050340012182 8.225252068983513 8.104129993294087
 8.133122203095375 -0.030462128675248244 8.141617172309347
 8.108860971738089 8.238478016641487 -0.006200897317962101
  Si  
  54  
Direct
  0.0016104046714930514  -0.00199013122969562  -0.00042403897987646746
  0.08633143814537066  0.08309079242297569  0.08125520212087335
  0.002146633039793268  8.190545142825584e-05  0.3340897026093348
  0.08643308920367762  0.08262048003169073  0.4167719591618083
  -0.0017854839294157488  -0.001435088847539795  0.6675096349771493
  0.08201426755276459  0.0829677519065341  0.7514961438703123
  -0.0023149777671869765  0.33313308429841654  0.0013748538386793574
  0.08361008966676281  0.41656429784254173  0.08226393393261999
  0.002400636074807755  0.33403985393074054  0.3297349363840545
  0.08355655720566213  0.41659067792977456  0.4159848554518801
  0.001064826738077479  0.3342379477917955  0.6641398939984088
  0.08441294084225201  0.41545688261593505  0.750903973732954
  0.0024597762713747806  0.6657959283015138  -0.0022515371033245413
  0.08673554443603793  0.748600734565254  0.08225819425333358
  2.1582987602020154e-05  0.6636687282291266  0.33335725046689163
  0.08437968304866578  0.747742965978275  0.41687473279883475
  -0.001439558908888583  0.6657179510359372  0.6702162375875029
  0.0859445668954088  0.7501098596814377  0.7503684692218779
  0.334189311497899  -0.002533712913763503  0.000853139582394552
  0.4182511848060871  0.08149855692099367  0.08423471668059684
  0.3318902365565839  0.0025089734424037224  0.33365904832101534
  0.419429885375425  0.08271442964365328  0.4152348676624369
  0.331544040247543  0.00033553070156314146  0.6681301490249686
  0.4163432252776381  0.08473998444806685  0.7502011426329539
  0.3329922476711824  0.3312523318117766  -0.00018718173332532562
  0.4167440898506421  0.41885292501681987  0.08208106524143749
  0.33132362980506663  0.33621072428745963  0.3333626213377565
  0.4167807874155064  0.41597903167166617  0.41782156227639156
  0.3317155108600612  0.3333321980370814  0.6686513938599885
  0.41760469144322393  0.4172154710875056  0.7522441450819446
  0.33084211147587683  0.6672762184124345  0.0010792430299690348
  0.41599254732929064  0.7516816678111362  0.08196997592238275
  0.3315722340645433  0.6669177939584888  0.33366668797185245
  0.4167040072765989  0.7475840862796932  0.4179031396929773
  0.3358441127651953  0.666907197909084  0.6636195720783854
  0.41511499555652465  0.749255463064297  0.7517872808577091
  0.6663354942664641  0.00022294216366824937  0.0027239059318946435
  0.7502230900480316  0.08224837945346747  0.08280520149852227
  0.6658982232854718  -0.0018908235290710507  0.3339415985864714
  0.7503043995078372  0.08374645567116346  0.41903115460315876
  0.6671889588533928  5.9458758823460744e-05  0.666345753096343
  0.7470772146416989  0.08493239562228111  0.750020143460135
  0.6676275881661577  0.3312200690013184  0.0002726600185647965
  0.746578639198447  0.417967645777585  0.08454322179181972
  0.6632964685436229  0.33541486767213474  0.3344170137928024
  0.7487821022025716  0.41860074773069966  0.4178760504485268
  0.6668056804354967  0.3358121088302426  0.6649434560114376
  0.7490287645094473  0.4169798420915425  0.7497517097973828
  0.6641478350671963  0.669453428633576  -0.00024262738020430774
  0.7469730032920433  0.7498230119459485  0.08526757225678117
  0.6666962395910152  0.666571386026314  0.33410958306504157
  0.746796437786303  0.750935648029935  0.4167377637752042
  0.6621714611215065  0.6680511636125229  0.6680942522889415
  0.7493432090268071  0.7506519872273703  0.7486911108635149
