supercell
 1.000000
 -0.027187740975613783 2.711512435411552 2.708765737803466
 2.6971262201553188 -0.013117765335358283 2.6946957621632106
 2.6812591403636237 2.6815753799796016 0.0027493144563365958
  Si  Ge  
  1  1  
Direct
  0.2512578047907783  0.23996496765354922  0.25619348017607474
  -0.0061868905823483636  4.90697864748986e-05  0.0019228983813866227
