supercell
 1.000000
 -0.013288331178695257 8.22473640444035 8.214680190747107
 8.145742363536606 0.045536523219078036 8.155855336349333
 8.123373041604774 8.143542228110746 0.0679058451509088
  Si  Ge  
  43  11  
Direct
  0.08301841305820899  0.08556795385649617  0.08369818598245919
  0.0010654630313768412  -0.00020886515108630566  0.3342912360194952
  0.08381503026291366  0.0809466860774087  0.4168551646835141
  0.08220044847583824  0.08134710589220334  0.7492727270692952
  0.08458999623946484  0.4163082837447929  0.08107138312877732
  -0.002864273074444118  0.3336828733620256  0.33563190361677486
  0.08164558213374096  0.4161136802639427  0.416538321817827
  0.0005878794504803886  0.335232935267552  0.6660645864431441
  0.08487604392203885  0.41728882219153374  0.7463930127566587
  -0.000840764803588856  0.6660531264324543  0.000640080980697566
  0.08120428909097616  0.7505706105608789  0.08571867585826198
  0.08205828800591575  0.751380155408641  0.41518092962265785
  0.0012732690968915161  0.6657566640129943  0.668234640492575
  0.08186224801267405  0.7492592408053275  0.7517118210915565
  0.33114228697573544  0.0008440927582757107  0.3352453547775062
  0.41640845630223045  0.08120420324025243  0.4177194039146083
  0.33332119458784515  0.00036359116968953664  0.6657414896638183
  0.41677220483605243  0.08610646589054055  0.7497294152865155
  0.3333066855436877  0.3331611836498878  -0.0024953983688739134
  0.4170516716775194  0.4177419564084504  0.0831803287222288
  0.33028606848146164  0.3348224738342404  0.3344013580130066
  0.4181047233641731  0.41807293008800855  0.416671704519494
  0.41703568392366847  0.4177805923828282  0.748212229143316
  0.41680049306620215  0.7496312822796547  0.08193451558925835
  0.3344016594266433  0.6666156501304179  0.3313232181858424
  0.4155192573300726  0.7491005063086336  0.41934058713032507
  0.33281787316782646  0.6699296298885038  0.6653340056167039
  0.41686029566064187  0.7501752075359577  0.7500400862414501
  0.666109680196421  0.0011711529815291444  -0.000983080491440802
  0.7512174826866167  0.07933531330700705  0.08428639733074195
  0.670157481316131  -0.0007684782460427586  0.3320952928996669
  0.749536142799409  0.08251107778398215  0.41927262672443694
  0.7495694160055428  0.08311294792494311  0.7523863589789994
  0.6651084709393544  0.3318070385155879  0.0031516567807152174
  0.747905018318979  0.4158156741269958  0.08327530210661349
  0.6643468430235544  0.33342595050860224  0.33628769561064137
  0.749351848348921  0.4190559441848041  0.41544678869171103
  0.6649946509045441  0.331794257258806  0.6687437231697797
  0.750361022152165  0.4168803073737979  0.7518687758788699
  0.7507864732071218  0.7504069626232109  0.08399183034361624
  0.6671667810387272  0.6636912276601203  0.3331416220545034
  0.6683588462002913  0.6663102699614559  0.6644839353700205
  0.7521243601360165  0.7500850838193497  0.7473174178534404
  0.000441283558246465  -0.00024232347256803585  0.002550172983750176
  0.00032630486660793203  0.0005922652840967628  0.6665932389145955
  0.00042465533510072095  0.3336687862864977  -0.00250233817482437
  -0.0009232428760776457  0.6652343593416552  0.3360177835113741
  0.33461582763283737  -0.0015088866737144324  -0.0013780342572929094
  0.4185457238199054  0.08429048139632944  0.08082394110453273
  0.33217820732608894  0.3357947779611733  0.6660750956096084
  0.331987710432048  0.6676799938279233  0.0016797022402894601
  0.667473405757257  -0.002522537871893493  0.666023577336247
  0.664597913276112  0.6695996155879325  -0.0008223088660723743
  0.7497592803111471  0.7475326070573568  0.41733984835888516
