supercell
 1.000000
 0.0 8.199425490213553 8.199425490213553
 8.199425490213553 0.0 8.199425490213553
 8.199425490213553 8.199425490213553 0.0
  Si  Ge  
  39  15  
Direct
  0.08665616025812889  0.07929319445166666  0.08132562756009379
  -0.00047866226652056444  0.002879412160236054  0.33041625336509395
  0.08144378223149598  0.08685290756901379  0.41693297632897175
  0.07984612915102528  0.08607341446346393  0.7504103426063591
  -0.0038669766732117306  0.337583631876234  0.0017808148702777582
  0.08469806456110568  0.4198843638179834  0.41255893108275316
  0.0032757377745155913  0.3349166205631885  0.6616199978051654
  0.002584373225745673  0.6683211763227843  -0.004231917907738358
  -0.0035354892869582377  0.6703960246879481  0.33112078093224323
  0.08652466667654574  0.7511358391271767  0.4192687871254974
  0.0028117030977534707  0.6670119110694281  0.6601985003690447
  0.08196291014235152  0.7484573436937134  0.7536252614999099
  0.3397126915195213  -0.0011622980429571161  -0.0017647324369637618
  0.41698276311391985  0.08179872542477667  0.08317561716252259
  0.3310515998930048  -0.0014319316218924238  0.33898452351058006
  0.41761023825560184  0.08100090980488464  0.4154068111561544
  0.3307272711771162  0.0014632818046105  0.6670520925697448
  0.4103868833263103  0.08329277472330016  0.7498663325363328
  0.33300024907303494  0.32893382135002847  0.00029637600856746715
  0.32705476135057787  0.3377181652806115  0.3351518862854043
  0.4123828547237088  0.41727189487619804  0.4202734758110502
  0.33371494260701384  0.3381927354196249  0.661786653912062
  0.4108279025555059  0.4170795147104866  0.7510182296812957
  0.33476016307506906  0.6657309501619265  -0.004249097285737746
  0.41957747592908323  0.7484245257277206  0.08124601990934566
  0.33325073592279075  0.6691145916050405  0.33342642582627025
  0.4207844477466805  0.7519085032005743  0.4171588971442979
  0.41445846175688195  0.7497054590974567  0.7565660541736102
  0.6608671032668432  0.003363719939463883  -0.0005943125564301099
  0.6679476185032425  0.004110752245441107  0.3343192222862572
  0.7514955490624986  0.08060053492251817  0.41699520266751716
  0.7435986796789975  0.08414529827634037  0.7545717086752386
  0.7521408506459895  0.4207126843905927  0.41175925360775345
  0.6675505420014536  0.33451595165107323  0.6596875024366721
  0.7508903205667232  0.4194249372339369  0.746632160084035
  0.6685802221810978  0.6597313453377452  0.001718641526579856
  0.6688127409696458  0.6605882790806272  0.3346475675736419
  0.6699779426170449  0.6668796226555465  0.6633715411167965
  0.7497144028683016  0.745541641933507  0.7556608931739227
  -0.001333982655055976  0.004059210364260577  -0.00501724253341791
  -8.400584640122499e-05  0.004737712906587532  0.6642605402819328
  0.07970454596723553  0.41669502059925806  0.08864290845652265
  0.005040933687115029  0.33294742970258207  0.3325175813243937
  0.08063865000473297  0.4246370718302627  0.7479452203543381
  0.08248031379952164  0.7556927563671323  0.08401944058525607
  0.41989540551515175  0.4183011489872294  0.08603924159327497
  0.32882105762581854  0.6664445905722658  0.6690614081370396
  0.7490869786510905  0.08457247524037154  0.07886738365118812
  0.6634956257896463  0.0007810457019601924  0.6674175648897349
  0.6655226419892104  0.3377501968586368  -0.0015688184934503635
  0.7501081928999774  0.41946715459092754  0.08179773897569842
  0.6682719154147978  0.336289494102376  0.32853237135845315
  0.754870043391688  0.7472723793248095  0.08437637640788809
  0.7505288052826086  0.746475966516502  0.421935060206856
