supercell
 1.000000
 0.011347528940636885 8.168380713833193 8.149504230592786
 8.108068181541755 0.020725107626720755 8.140126651906701
 8.164399607825851 8.215334561431204 -0.03560631865737474
  Si  
  54  
Direct
  0.0011921130436069254  0.0007380507175031191  -0.002751678284110884
  0.08319686977298008  0.08120524567570228  0.0863293213138999
  0.00025386732511802133  0.002089051150188274  0.33208760605732224
  0.08439177400982102  0.08316215146474094  0.41754551199170153
  -0.0033538426767122254  0.0009257563933091747  0.668397680359731
  0.08343166174695761  0.08349801285326443  0.7506527539801254
  3.0855159928344644e-05  0.3347497917435896  0.0017862361145109529
  0.08498133409795866  0.41569380573347353  0.08312254642014
  -0.000458946046862474  0.3346479992422621  0.3305663933457518
  0.08215020090957129  0.4151260905694082  0.4172580094107271
  0.0006278359617944707  0.330070510365051  0.666764671027013
  0.08269152366736582  0.41592673116839624  0.7500109446504658
  -0.0009575547829880904  0.6661799824899132  -0.0015910116385082773
  0.08601060167104274  0.7496148665773021  0.08110998179086243
  6.055864817849921e-05  0.6638618483482288  0.33569590078110606
  0.08449693009065146  0.7488649689525286  0.41724194296634354
  0.00019121233567936935  0.6696627999347431  0.6666461069666405
  0.08067304954672588  0.7504942642185022  0.749951596728767
  0.3312392133489823  0.0028537178027776  -0.000993159487139128
  0.41478929164928446  0.08239681259751888  0.08748223515639575
  0.33520808692011317  -0.0007671848530595715  0.3346149570778302
  0.415740233584437  0.08703029639779825  0.4157624181604827
  0.33229239586039744  0.0006089707814690981  0.6649565465675534
  0.4178621351283599  0.08334728884906473  0.7517052152738699
  0.3352619638893142  0.3344893444481519  0.0012767604192581161
  0.4187997172146384  0.4135320654748399  0.08379984133588636
  0.33576631193204826  0.3312587542410023  0.3336117536117226
  0.4193277000613855  0.4164144820350865  0.4139919472054519
  0.33494675532668644  0.3332059937644886  0.6665340284294317
  0.4191252947367367  0.41725518391141575  0.7464111184679854
  0.3334453462354344  0.6669984560363581  0.0018758047135428724
  0.4175311976890834  0.7467096996729257  0.08396933519696537
  0.32943726753322317  0.6677311884025603  0.3348962218961475
  0.41380620749857805  0.7510940358730473  0.41851811169684483
  0.3320568791389036  0.6666615014243398  0.6678309572452352
  0.4164323273089009  0.7499280990226517  0.7482161917868025
  0.666148188013012  0.00013226413023731398  -0.0017611730357093847
  0.7511381109406293  0.08471755870284203  0.08277298715112158
  0.6681500686090296  -0.0020241056045742223  0.3333373764913745
  0.7505807628613166  0.08275185258989914  0.416243173372739
  0.6670377391295412  0.002581367752246655  0.664530952107536
  0.7478210156309766  0.08298349652229192  0.7505519824428205
  0.6671761717399721  0.33278817393540827  5.154298653686773e-05
  0.7498632131753415  0.41789743258368245  0.08105661932829178
  0.6672423336014556  0.3347967763447989  0.33103888349858257
  0.7506266735373843  0.4157762343813305  0.4192276503097473
  0.6645577388168196  0.3335872705750684  0.6695896648915076
  0.7481402044706255  0.4172375698153169  0.7525126478168014
  0.6673262650009876  0.6677553029362705  0.00039827716389928547
  0.7508867965274406  0.7488120663053235  0.08246428046788623
  0.6649023558839251  0.669807831720105  0.3329716287741574
  0.751125818635956  0.7473563105103129  0.4168814240600651
  0.6675025348084085  0.6687687888190998  0.6635250015287921
  0.7464538166209714  0.750344539719039  0.7517671901829093
