supercell
 1.000000
 0.0 8.199425490213553 8.199425490213553
 8.199425490213553 0.0 8.199425490213553
 8.199425490213553 8.199425490213553 0.0
  Si  Ge  
  34  20  
Direct
  0.08029897424819925  0.08066403433817936  0.41619661474623076
  -0.002079953483590185  -0.0017916675806091626  0.6738308062210694
  0.08021733550564043  0.08358356397026019  0.7483866169803155
  -0.0018067746429724363  0.33439073829370214  0.33659743336878656
  0.0821618961948847  0.41154339987372435  0.41912589792835986
  -0.002976157317888306  0.329859782473185  0.6703784853039835
  -0.0014503500542115688  0.664864725257433  0.0008618345975426323
  -0.0031769582393499363  0.6681744119503077  0.3335377608925578
  -0.0005898360374289036  0.662372955920712  0.6718411188407816
  0.08333874521591933  0.7439217883392674  0.7523661997531075
  0.33831315636930287  -0.0038690425418114738  -0.002379191137057979
  0.4161718996612263  0.078696215804194  0.0848636395969396
  0.32986305519068604  0.0027318639569890724  0.6686570572142772
  0.3355735948930646  0.33625632177902287  -0.008091718933317948
  0.4238874150771002  0.41575438486312405  0.07788686299110842
  0.33471270783632184  0.32858869115982275  0.33638558433236515
  0.4177259865865865  0.4192554824332541  0.41576468051096077
  0.3384274196485714  0.33141091286627183  0.6665465399118602
  0.419445353674911  0.41938234472187896  0.7514206662410481
  0.3318193542339279  0.6705901145120394  0.0006673834924116884
  0.3312456389291441  0.6683636189828306  0.6710115383005006
  0.4200561024202313  0.7487889357562304  0.7510833910110202
  0.6670949605026808  -0.0055132948072204035  0.005475927277999726
  0.6639210495988122  0.003734102458090638  0.3301182442249152
  0.6685808269368965  0.003027073671475311  0.6625658491273014
  0.753996280215628  0.41524810460210093  0.07986385935590967
  0.6676423387284414  0.33711200075634923  0.33405909469728257
  0.6645608855974647  0.3343976022801167  0.6720499384413572
  0.7483117669361325  0.4153632296580556  0.7505557437454969
  0.7509327838062253  0.7479137414858937  0.08024445126518931
  0.6657192702385714  0.6697024117433722  0.3321543969840727
  0.7505766944355527  0.7509936590812802  0.4182326042046539
  0.6692654136867271  0.6627304669280947  0.6678026091376293
  0.7532225993923284  0.7488137851900277  0.7506367766815425
  0.007249066164674022  -0.0037768214851098226  -0.002142984396416651
  0.08373797743528463  0.08195762712721438  0.08231429428165259
  -0.0019510426303794614  0.00014667366047757112  0.3386617087542473
  -7.105797777018363e-05  0.33576681599363684  -0.005602756374313345
  0.08244608120476071  0.41949843460217395  0.07871047272683485
  0.08578806558902291  0.41120225761613055  0.7492484427030928
  0.08660183246848935  0.7469462008864864  0.0816381702156585
  0.08931119622724332  0.7485159027551582  0.4141637799522958
  0.32968130703229326  0.007562064318984513  0.33142864516107956
  0.421642704795676  0.08456281818498315  0.4099917681884749
  0.4117210973900486  0.08666388297842176  0.7512033421743197
  0.4135370707069926  0.7479129548023642  0.08165150421613698
  0.33592514906812854  0.6638934999495008  0.33257766966017044
  0.41354417913538927  0.7503179980674719  0.41395737930424215
  0.7459730123853046  0.08621993121093591  0.08421037199412135
  0.7485085390136823  0.08102125219605161  0.422061250180763
  0.7526838845495809  0.08397057270881625  0.7513371967671512
  0.6668630741058528  0.336513001767482  0.0009113392906157092
  0.753591235145849  0.4172943419539058  0.4135240178099381
  0.6674374326127899  0.6670433608848474  0.005490500845684698
