supercell
 1.000000
 -0.013722048007226047 2.6967608385651576 2.7017795646453315
 2.701395508770518 -0.024510031861380937 2.7125675484994862
 2.6870954839427386 2.6932487975915334 -0.010210007033601578
  Si  Ge  
  2  0  
Direct
  -0.007039342225747353  0.0067084571694731214  0.0016489030209017033
  0.2469587484851849  0.2607936464163971  0.24592451299523604
