supercell
 1.000000
 0.010920807935943157 2.7547948564128943 2.7274975069829366
 2.697907360728123 0.02630480085569808 2.7121135140631814
 2.7128239902253783 2.7543274929903943 0.011388171358443099
  Si  Ge  
  1  1  
Direct
  0.24363131615174866  0.2483242495606345  0.2587690890218442
  -0.008109780074273824  0.007210252201630529  -0.00047055023957150134
