supercell
 1.000000
 0.018479720368145113 2.7424761059101765 2.726099157639076
 2.715283687804717 0.017236391420651538 2.72734248658657
 2.71451165380132 2.742947400854273 0.01800842542404851
  Si  Ge  
  2  0  
Direct
  0.003758541772754843  -0.0011919062714409114  -0.0007614120999566756
  0.24478425715742333  0.24850153964370833  0.24732981003584245
