supercell
 1.000000
 0.0320035425502717 8.12745127249011 8.093975980349109
 8.066033730058821 0.0020092004558346227 8.123970322443547
 8.158922651804648 8.250334536330373 -0.09087972128999215
  Si  Ge  
  41  13  
Direct
  0.00029357981133248365  0.002742628095449003  -0.0008790464708898294
  0.0015040555714170216  0.0010050195617253442  0.33496755548994545
  0.0863681247802797  0.08281736390639029  0.4164917703052409
  -0.00011681218577840124  0.002769338513503939  0.6635693409652939
  -0.00033431793915083007  0.3316737207743218  0.002106115752692861
  0.08316008060317788  0.4147920552937385  0.08197159120810744
  0.08384433512975527  0.41748364245273  0.41563780860493704
  0.0005166059826994299  0.3344411634858322  0.6667451839181465
  0.08197154225064168  0.41700381561615  0.7484568924381315
  0.08517533099477069  0.7501932746536797  0.08428799996107263
  -0.0006519411155465258  0.6647654843040272  0.33298107721376186
  -0.0014014905586821806  0.6664151884327307  0.6672409465413162
  0.08397283614127102  0.7484512241795345  0.751444675856381
  0.41425818360501926  0.08606329568032096  0.0830125204328258
  0.33157261376386993  -0.0011340095709293206  0.33240379666356595
  0.41715702704839935  0.08004890545156046  0.41903122849611485
  0.33372916760475674  0.3345988287230385  0.001059584273533797
  0.4153602253992317  0.4188747136992547  0.08291491865219794
  0.33393485127693584  0.3356328560047977  0.33389569527750523
  0.4186370771230453  0.4170785064120895  0.41695602147530725
  0.336525494217902  0.3325654238875071  0.6661266104408661
  0.4164890557186052  0.4156244108116941  0.7479036948731776
  0.41681991608391106  0.7489916748315828  0.08135562762022126
  0.33254307911469244  0.6675760983529031  0.3331757769624982
  0.41733233695424476  0.7483316072601733  0.41634689867456687
  0.41746336424009584  0.7487133736033958  0.7488613604595067
  0.6667701758112359  0.0003633008241696881  0.0001330913725255397
  0.7521501550962311  0.08332587394847006  0.0819257401640552
  0.7494423065645345  0.08605274237454806  0.4150826137892431
  0.6667640146094228  0.0005629044190485983  0.6651582715041982
  0.7465033263020933  0.0852696846114938  0.7511750149469096
  0.6639819984507966  0.33380170928286845  6.302555472602315e-05
  0.7509387745048832  0.4185182202205194  0.08417375288010097
  0.6662150328031882  0.33133743203756266  0.3350502333482588
  0.6688959984508378  0.33338925924732327  0.6651696795987905
  0.7524771707929421  0.4159182807214638  0.7487933484833719
  0.751506740077592  0.7499479698703341  0.08463455651772966
  0.6667096458162916  0.6679288971661793  0.3327558414655763
  0.7506367279376011  0.7476422518404372  0.4166890949507535
  0.6686047553316345  0.6641317085202207  0.6660540577754994
  0.7472078806504823  0.7495599336617134  0.7536711785475485
  0.08344654936522414  0.08372721169623533  0.0831702342698916
  0.08228033542850718  0.08378763682853377  0.7511726025102242
  0.003489430961026149  0.3321593708202973  0.3323145134143039
  -0.0017951278551245117  0.6676540234444734  -0.0005998626232771257
  0.08281772492730152  0.7504666585381454  0.41653610613291775
  0.33258479834977445  0.0007352110833492526  0.0011090684425109404
  0.3310811976986876  0.00048751106084081913  0.6686060315235373
  0.4182407242874909  0.08096334819007056  0.7500968544931785
  0.33523552316689714  0.6640155963760536  -0.0003884406132096567
  0.3332588736828309  0.6670903386150219  0.6657168040886373
  0.6662504459073192  -0.0012372826729420362  0.33133538992166706
  0.7512522874768446  0.41804032628216636  0.4140668616104971
  0.6673033685817276  0.6683078587490046  0.0012144850914421843
