supercell
 1.000000
 -0.027299348204853503 8.126643363999285 8.128186843912475
 8.137515646318915 -0.054591445969735176 8.155478941677357
 8.148013577305582 8.164433392750833 -0.0650893769564024
  Si  Ge  
  43  11  
Direct
  0.00021191646076707465  0.00022353646214860414  -0.0010843425654975948
  0.08200543998825156  0.08739436694765447  0.08195980799159998
  0.08375562345046403  0.0858359434338831  0.4137295031997936
  0.002245809039242645  -0.002780892221359029  0.6675766006324886
  0.08624048917867223  0.08045026810628066  0.749725676462502
  -0.0028039212520117873  0.3341186481204926  0.0013426975362249571
  0.08302900217170017  0.4164853595925061  0.0813295887489473
  -0.0003290545543860046  0.33238945304903444  0.3365854152982082
  0.0821713662837098  0.4147645360826439  0.41582912440535647
  -4.2521964511349486e-05  0.3325489432606057  0.6678542382375225
  0.0832104902877808  0.4136579812749088  0.7528970846011179
  0.08259234696947548  0.7534876359970869  0.08253890941503839
  0.0013650472921758472  0.6670913564118852  0.3320587631765835
  -0.0019172571871827748  0.6669664145447525  0.6674158125949926
  0.08401834143802672  0.7505840889002455  0.7492518609307238
  0.3353170918902786  -0.0008572284891884274  0.0012074293540706715
  0.41896862820884184  0.08074270852259677  0.0839805455240385
  0.4186951403693028  0.080568609013393  0.41713094462346845
  0.33134191322081913  0.001343918893038254  0.6665730365997693
  0.42068346207611995  0.41581619046681617  0.08105798069614412
  0.3342754686492484  0.33396809846388564  0.3294748907721306
  0.4150616753739246  0.4160460718913055  0.4173900677606927
  0.41545176693143365  0.4184717960025161  0.7485780837235603
  0.3323422831152616  0.667647092929696  0.33325495151034557
  0.4172355913924038  0.7522288975652824  0.4174861934052162
  0.4185188764349229  0.7509695070187571  0.7479380528902008
  0.6662859575747584  -0.0002576310800935233  -0.0023832373068323753
  0.7530715673386184  0.08154049754265907  0.08346436121569395
  0.6663444157834  0.00012080017001064869  0.3320585499487902
  0.7505471013656553  0.07974740872053643  0.41868358774875786
  0.6636884360252613  4.339964192823231e-05  0.6683189460392378
  0.7490860622940587  0.08488905942721592  0.7512547885550729
  0.663909682460038  0.3336968377211552  0.0020326320174741674
  0.665963936633247  0.3357866544915548  0.3322347542378181
  0.7525651058245559  0.41589848866246476  0.41549028383595543
  0.6681454104365739  0.3347663629779861  0.6625888095208672
  0.7511960437421618  0.4184288119385925  0.7473120089852098
  0.6655354647972914  0.6676447972442913  -0.0018918434583434784
  0.7507375790411748  0.7516388415739377  0.08309789543320845
  0.667341899405911  0.6661686888874252  0.331945230242489
  0.7496363520870023  0.7484997245967421  0.41902084430888475
  0.6656781306535527  0.666023390953493  0.6657224341146926
  0.7490817281081187  0.7505675415454723  0.7497815848782842
  0.002351275640484677  8.727978045877443e-05  0.33106676942078717
  0.0016140394870947095  0.6678888123308223  -0.0026490265006519076
  0.08453839005936925  0.7513748009695183  0.4168735350609891
  0.33188030657266104  2.548760584830667e-05  0.33310610910340654
  0.41772454036874307  0.08327129916922782  0.7483520850949796
  0.3298673026068768  0.33366843606626684  0.00253748551999039
  0.3330665379566663  0.3307406772369844  0.6692669021319206
  0.332849171985921  0.6669709818778367  0.0024436137804050295
  0.41542342821300726  0.7526497151502091  0.0833026604735132
  0.3307604053213476  0.6661247193373656  0.6681296627965897
  0.748947211306368  0.41738470011262274  0.08392155523762723
