supercell
 1.000000
 -0.012338321451868473 8.028292714420033 8.070629228765865
 8.079470765545377 -0.05181483460956926 8.110105741923567
 8.10696819711028 8.095266659142636 -0.07931226617447214
  Si  Ge  
  46  8  
Direct
  -0.00030061140646889527  -0.0003954036116616867  0.00168510806212874
  0.08581051825362923  0.08048255693661382  0.08359468912572138
  0.001189729044643953  -0.0007838599901645241  0.3330572955729384
  0.08063859624586518  0.08411412891655977  0.41869974805898863
  0.0006440687136221452  -0.0010016044013758066  0.6681441902249721
  0.08197743553114051  0.08374458725738945  0.7519878851115291
  0.0025093757643596887  0.3339749174437904  -0.0029951805463308773
  0.08364476074781053  0.41478422175595897  0.08216376806353116
  0.0004142589027018688  0.33306124415897304  0.33596280261608746
  -0.001786468243619332  0.33563018153542207  0.6667657045102136
  0.08668734248691685  0.41634068329732504  0.747906807145682
  0.0006545607485021748  0.6638155269459919  8.803436371734917e-05
  0.08217583387811586  0.7516634567021144  0.08412003929198222
  0.0005925087977050647  0.666956852120878  0.3317832352930129
  0.08148374417316243  0.7495547640293918  0.42034984865937775
  -0.00043011652628054494  0.6656025210985889  0.6681503183758418
  0.08307863167980749  0.7497861715261479  0.7494577809260095
  0.3321548665572814  0.0007537002699705157  0.0013462055974105254
  0.41387113587667923  0.08428584026141182  0.08288974654480748
  0.3346641121355329  -0.0011456346460265055  0.33424768659147863
  0.41690315734443734  0.08356856758734905  0.4133516695347677
  0.334323852086526  -0.003982541111604479  0.6675520506403022
  0.33562113280054706  0.3323309568549522  -0.0003933945686043239
  0.4154635649652324  0.4161351973867856  0.08215123183742301
  0.33389508609629626  0.33299407246373486  0.33531059694200804
  0.3345105059746811  0.3333235921993903  0.6639494806511922
  0.4161663675495663  0.41578500495130954  0.7533992661448673
  0.3324446040508367  0.6700070890936439  -0.0010140015773355475
  0.41509330511828013  0.7497881242648103  0.08505427911317641
  0.418999964622803  0.750548063519673  0.4148009482548035
  0.3331370244971895  0.6693387396119763  0.666593849051223
  0.4174146952045958  0.7468630658782182  0.7521350541153282
  0.7496971742533106  0.08616479512447395  0.08048998612487751
  0.664841155212178  -0.0014004336495794223  0.3348018356354361
  0.7511380730192575  0.08453779103070275  0.41473473768910185
  0.7493393200998819  0.0817416289878523  0.7536063692310797
  0.6670398356903388  0.3356029084730235  0.0005482644930639151
  0.7489215630012751  0.41738298916034516  0.4146246201678809
  0.6658870145446584  0.333766974861704  0.6689055424953848
  0.749962375238167  0.4177896086432247  0.7496613885602178
  0.6668378486290751  0.6693681493193493  -0.0029123722461225016
  0.7529477666923314  0.7493017186391402  0.08260330493415555
  0.6679877878439684  0.6670847976826745  0.3296769145814381
  0.7508821013723367  0.7506496910488983  0.41339392119344376
  0.6682372173106744  0.6623525569482682  0.6679160503958699
  0.7498390640265299  0.7488325982305166  0.7530130609884558
  0.08494098589248161  0.4162565351159791  0.4167132743710483
  0.4185871740511342  0.0796325450387647  0.7510068570002777
  0.4187338257185675  0.41451148305606056  0.41676911895873414
  0.33220535310146815  0.6677769246580946  0.33148576811357516
  0.6667508036219099  0.00284904743533768  -0.0011752189989983933
  0.6673076701647592  0.00059409172049549  0.6686978756045895
  0.7482106590754364  0.41730456826374296  0.08448741261511115
  0.6657806868473426  0.33660397726350316  0.3318680652863931
