supercell
 1.000000
 -0.009466191482295062 2.734060586177586 2.743234178126735
 2.722001683227022 -0.0032072885083619116 2.736975275152801
 2.7152286227052103 2.7210286226818403 0.003565772013450234
  Si  Ge  
  2  0  
Direct
  0.004001742502472749  -0.006199479691986633  -0.001726978316502449
  0.25022582356309037  0.25198828507367516  0.2507906786339449
