supercell
 1.000000
 0.04691208989449898 8.10268256887266 8.105742282340112
 8.161722659492455 0.0301375744119836 8.122516797822628
 8.25599109959724 8.213725524459962 -0.06413086569280285
  Si  
  54  
Direct
  0.00245456400336875  0.00044071182151999644  0.0005053823397535972
  0.08360515717743368  0.0848983080010005  0.08368690844289212
  -0.0016088804486910425  -0.001418044910473183  0.3331207063944235
  0.08676126681997091  0.08282658300886135  0.41514799101028527
  0.001303576513440824  -0.0005061845912940287  0.6646924539226967
  0.08173201639088694  0.08215686241768409  0.7515129669997255
  -0.0011433269109622501  0.3322003119355723  0.0017842153176397257
  0.08178347682491535  0.4161678160743171  0.08216024848694745
  -0.0013833426062421217  0.33265145868401824  0.33604554933883934
  0.08262897878854197  0.4145772981296361  0.4204873949348647
  0.0011990195057651754  0.33461319418196234  0.6654369171546186
  0.08587278198147758  0.414782708298656  0.7502530520713118
  0.0005735225271188971  0.669284127508591  -0.0018543615534530322
  0.08127631395705504  0.75093059835331  0.08388133877943904
  -0.0002499143157760897  0.6670372776295148  0.3319208115715463
  0.08394089006053929  0.7498484454221883  0.4175139600516827
  -0.0025429496635764326  0.6666670697707564  0.6689583955940297
  0.08612737683975219  0.7504232153459938  0.7504228820965929
  0.3307543405848429  -0.00019711454670715  0.0016233191854803375
  0.4190532995696821  0.08225615253692847  0.08186813527510567
  0.3307686407177116  -6.980535281683742e-05  0.33505921477007805
  0.41688281327560167  0.08231253565656821  0.41539012355248495
  0.3352302998971217  0.00018181011397269686  0.6643096774703731
  0.4181184344758338  0.08396302780506554  0.7492139290437014
  0.33388307093224756  0.33332619298627386  -0.0029765755013527184
  0.41713313094137017  0.4178954251715138  0.08420707391727805
  0.33452634584726626  0.3339773792895757  0.3328043958217781
  0.4145079392060774  0.41621244892738196  0.4189492638712629
  0.3349780737950898  0.3320604655153291  0.6674874226848877
  0.4146036577210756  0.4171761668370663  0.7511127139568781
  0.3321319560443521  0.6648200751658897  -0.0005727313611086915
  0.41755177969055307  0.7469665497197278  0.08475914317012323
  0.3320501717580439  0.6673238216132604  0.3315660006357842
  0.41632283234562145  0.7521505282118579  0.41687446009258367
  0.33504746756097054  0.6643478990872385  0.6668256198372966
  0.4162852608183427  0.7474545471093479  0.7525840808550386
  0.6670127100381604  0.0014246531193410905  -0.0028964102658997626
  0.7519620778853279  0.08455297722061916  0.08123382898192566
  0.6685640652016587  0.0008542550726206577  0.3296551301569591
  0.7491208313674307  0.08168942086739078  0.4155967542115567
  0.6658225287726404  -0.0012921497753501932  0.667189308614659
  0.7494280852984092  0.08549791801175366  0.7489235013621568
  0.6683620118082815  0.33052088643972555  0.0013226790243532904
  0.750100818735782  0.41710879769653114  0.08364950821409256
  0.6645924045893833  0.3328027980828703  0.33498990277662327
  0.7506364575931935  0.4142539788395626  0.41802013439415486
  0.6687115753319774  0.3332899448446536  0.6670137227451434
  0.7522785230959326  0.41665823017417813  0.7505470753117589
  0.6640280307761066  0.6678239154800851  -0.0002166637935280269
  0.7515694615831616  0.7475424331315861  0.08321871702911621
  0.6675471072461043  0.6661413347583813  0.33523009372084556
  0.7494598863130397  0.7510328855801134  0.4148817269674262
  0.6687806761696437  0.6677268358793239  0.6660940124595679
  0.7480784054550356  0.7500212202242511  0.7489479509400169
