supercell
 1.000000
 -0.014170289903796469 8.116670398108603 8.146580747383469
 8.17154673150389 0.008948151216995832 8.123462306262677
 8.150084261410083 8.072089486894003 0.030410621310803927
  Si  Ge  
  46  8  
Direct
  -0.002830961156276036  0.0026541049991323546  -0.00010093221826145867
  0.08272513959593246  0.08295885283022308  0.085842803333187
  0.0008511579787686123  -0.002480003490620739  0.33450698304629123
  0.08070070878479788  0.08286010413802454  0.419767421784278
  -0.0016687433857021474  0.0006078670588206225  0.6665309217376245
  0.08499387066752072  0.0837318698055941  0.7496220161047561
  0.002097806687443216  0.33379856514089995  -0.002451547747451455
  0.08186355405494235  0.41753552605757904  0.08289203695128085
  -0.002112325101167058  0.3357168771436295  0.33285089534181467
  0.0823682222699019  0.4156513414665619  0.41544347357641104
  0.00073310098381242  0.3301829047136139  0.6670634673857788
  0.08291217061449833  0.41975649958986055  0.7492231325437647
  -0.0015825863178995966  0.6652271263667232  -0.0002647951271642038
  0.08312961835619229  0.7512936634714096  0.0846083338554173
  -0.003143365472039001  0.6666244637115528  0.33608627233871063
  0.08075481312440541  0.7511821617607152  0.41682811465237324
  0.0024068809614963865  0.6647310149644184  0.6673594685573939
  0.0803922375384069  0.7502506997277101  0.7526743152231888
  0.33424561905451905  0.0006670963396946799  0.0018716620392082313
  0.41801863154017616  0.08372439515449205  0.08493922234879973
  0.33253486132193605  0.002265086003485636  0.33121639087378707
  0.4180227098112902  0.08270884615773708  0.41821828748766177
  0.334249767757637  -0.000632428053564096  0.6657520051738957
  0.41877504630297585  0.08213913397575283  0.7487018835502921
  0.3349885355553128  0.32970990021005797  0.0005650890458207439
  0.41557316776612035  0.41624689689374245  0.08234732508993459
  0.3314708142587953  0.33548266922553854  0.33221511052022235
  0.4150018330327738  0.41781405373287456  0.41612947375331827
  0.420408241225112  0.4157946343885558  0.7492509722382912
  0.41620278859629006  0.7499240772640238  0.08308436394512055
  0.4180925875364947  0.7499855198039663  0.4168204293419406
  0.3311498926371434  0.6657005855847422  0.6670728482699119
  0.41870389394183805  0.7506206913668216  0.7508535145567838
  0.665339668490141  0.0034551549152362863  -0.001495667791350014
  0.7505895582038455  0.08524581147482457  0.08289424067910961
  0.7529665057570332  0.0800528572438372  0.41682766571970586
  0.6673530338553159  -0.0010236224870410085  0.6654815945139911
  0.748960436013968  0.08713476525017318  0.7489760747540055
  0.6675293538387206  0.33143180079003925  -0.0005483343226703169
  0.7493091871383738  0.4154268693055562  0.41856942809932396
  0.6690979969138457  0.3329126460802018  0.6671382547754143
  0.751188941788859  0.4175233813699852  0.7502400794216452
  0.6678231442904967  0.6627260724912976  0.0011194650586468999
  0.7523625403913807  0.7494401238151897  0.08334401811327748
  0.6661746756402421  0.6690660513203744  0.6644603379549939
  0.7498049372230229  0.750595443562045  0.7498337159917021
  0.3299597347665371  0.3344349299209249  0.6678016733946391
  0.3333875952309116  0.6672941613899984  0.002367007920876459
  0.33291786591033  0.6700121561892916  0.332383267189865
  0.6648787927513571  -0.0009202995293114515  0.336309424194686
  0.7514691066051906  0.4153292521558237  0.08153076142137498
  0.6646293988859683  0.33223839920503023  0.33380888945559894
  0.6663934866543112  0.6678289609274909  0.33355690698644647
  0.7511815599384474  0.7502399740723423  0.4168962951063802
