supercell
 1.000000
 0.013492748529054388 2.7335981054486007 2.714548691957549
 2.718790805001085 0.015081653627603126 2.7129597868590003
 2.710799367583941 2.724017762932908 0.023073091044747644
  Si  Ge  
  2  0  
Direct
  -0.009852345716186223  0.0058544415119002385  0.0009111295900059465
  0.24811412810024175  0.25936858494028286  0.2490853072503808
