supercell
 1.000000
 -0.00341567813919477 2.7173915531540707 2.7137418425408577
 2.709760321992516 0.020341148529855014 2.689985015871808
 2.7075072212090987 2.691381625701603 0.022594249313272082
  Si  Ge  
  1  1  
Direct
  0.24553165452484785  0.2459355676154064  0.26318687973249033
  0.008592763177854163  -0.009096884706225083  -0.0006292906870174361
