supercell
 1.000000
 -0.0634040760707874 8.191911076705415 8.145548559299504
 8.017736669813882 -0.010445195931636697 8.092589679160355
 8.079071315591946 8.200286842344328 -0.07177984170970113
  Si  Ge  
  36  18  
Direct
  0.08270167682844144  0.08473952240318815  0.08242905729999944
  0.08583329175946808  0.07991404429207948  0.7506547086274525
  0.000226443030321534  0.3327874280799168  -0.0011001040137960008
  -0.0027498275886248  0.33308579521429255  0.3362223162648697
  -0.0012171606448739378  0.3346243349295917  0.6666198417717218
  0.08144398746136756  0.4168224026423927  0.7524902013885634
  0.002622044749435616  0.667281139792198  -0.0023873370072002866
  0.0847415457613156  0.7482017454920942  0.0850280800698836
  -0.002642970796782618  0.6679429167522625  0.6671028025034397
  0.08224919493597638  0.7479995737139916  0.7519544176682221
  0.33373322134530814  -0.002574648898171586  0.0022442102533242274
  0.4182703497141629  0.0845231311052718  0.08450247994478048
  0.3342009418640214  -0.0005801899661157923  0.33318173912698296
  0.33371829298968303  -0.00334029456563847  0.6670167506340381
  0.417379431618878  0.08328399074569556  0.7499269260263427
  0.33239107546441327  0.3347614852748616  -5.903494453782745e-05
  0.4142605658760974  0.4174678095919155  0.08529955091931911
  0.3336970608074815  0.3339342948352199  0.3301198233975049
  0.3321491678967217  0.3360041336405242  0.6667713671604322
  0.4146440204376073  0.4195545667098542  0.749930646125968
  0.3335463201789419  0.665380106733046  0.0013779874000745588
  0.41676981793416834  0.7492491089923077  0.08334162331737316
  0.3331936330343537  0.6652327124818513  0.33288942849847725
  0.4154436992878223  0.7534675138434151  0.41507174292363974
  0.3332115826763123  0.6657897525720875  0.6658314173697811
  0.6696640288735881  -0.00010789409478161236  -0.0011993049798667119
  0.7464831886429042  0.08542858718617183  0.4169613493745845
  0.6698413544123848  -0.0012720343917804568  0.6647025709078153
  0.6686433046245024  0.3335535490966519  0.00038775259604351104
  0.7504040068594803  0.4144093685495384  0.08297770692809554
  0.7505797158076565  0.41534995318830087  0.4148744570126047
  0.6678134201973558  0.3353221668392795  0.6673539380485227
  0.7512899936903926  0.4157201208330348  0.7515867900487113
  0.6680073763390686  0.6654928503438754  0.3341293409511376
  0.7498294719290577  0.748266882321926  0.41754178285670096
  0.7478050884461657  0.7520006591456037  0.7491930953625067
  0.0004307591711415148  0.0006696497427096013  0.0021372190593362786
  -0.00020977693034261705  0.002255635943206358  0.3306782789775337
  0.08322125833634289  0.08370376700334359  0.417468868510184
  0.0019392188817438363  0.000404476061673689  0.6667754682918983
  0.08113463002786704  0.41790228401021706  0.08237386852855212
  0.08705614000433344  0.41470458291968865  0.4154577593876319
  -0.0022422463815291566  0.6667797608488989  0.33458310810917735
  0.08467038663493459  0.7506891358243049  0.4142981321729151
  0.41440794284271665  0.08347202681465574  0.41609866104644777
  0.41787436902325487  0.4167394107622585  0.41588770386000923
  0.4144007879982655  0.7520638804333443  0.7501488880428379
  0.7527806919078663  0.08210261952725897  0.08295501161612459
  0.6701499374965196  -0.0026617033142490682  0.33291410934031407
  0.7517530792128899  0.08441690996254239  0.7508352466094038
  0.6684734472499033  0.33318918052108776  0.3339358845432921
  0.6678916205039742  0.6668713466325896  -0.002449623190047676
  0.7480567582779176  0.7530400179304945  0.08346382355082198
  0.666627718592847  0.6654090369121526  0.6674955250440242
