&control
calculation = 'scf'
    restart_mode='from_scratch',
prefix = 'PREFIX1'
    tstress = .true.
    tprnfor = .true.
    pseudo_dir = '/users/kfg/psuedo/gbrv_1.5/',
    outdir='/tmp/TMPDIR'
    disk_io = 'low'
    wf_collect = .true.
    verbosity = 'high'    
 /
&system
    ibrav=  0, 
   nat  = 128
    ntyp= 2,
ecutwfc = 40,
    ecutrho = 200,
    q2sigma = 1
ecfixed = 39.5,
    qcutz = 800
occupations = "fixed",
    lda_plus_u = .false.
 /
&electrons
    diagonalization='david'
    mixing_mode = 'local-TF'
    mixing_beta = 0.3
conv_thr = 1d-10
 /
&ions
  ion_dynamics='bfgs',
/
&cell
 cell_dynamics = 'bfgs'
/
ATOMIC_SPECIES
Mg 24.305 mg.pbesol.UPF
O 15.9994 o.pbesol.UPF
ATOMIC_POSITIONS crystal
Mg  0.000104398054636 0.00129438949695 -0.00169428223628
O  0.123776942008 0.126451220808 0.123571203295
Mg  -0.0013072073991 -0.00170410805998 0.252161069042
O  0.123350277754 0.125167415067 0.375030072049
Mg  -0.000979518596416 0.00318222760161 0.498141337718
O  0.128436076205 0.123011639089 0.624043097853
Mg  -0.00171726899431 0.0023725428542 0.748624844392
O  0.126101438432 0.121728165119 0.876332612767
Mg  -0.00367557405481 0.251282746202 0.0017156782022
O  0.12670631642 0.372379365026 0.125533892508
Mg  -0.00168523154871 0.248746918364 0.25075191314
O  0.126417832819 0.375206379495 0.374461427627
Mg  0.00143406234171 0.251333547297 0.501462422893
O  0.126433122057 0.376081986235 0.624370289367
Mg  0.000999632994348 0.246581968955 0.751156477891
O  0.12379124879 0.378486824195 0.873373773631
Mg  6.26102156652e-05 0.502269455341 -0.00177811051119
O  0.123573996292 0.62613962336 0.124735941304
Mg  0.000981250590693 0.501967399125 0.247569691487
O  0.12361773833 0.625931361672 0.373350164081
Mg  0.000800838371546 0.49966528248 0.50033303857
O  0.123497960659 0.62659573563 0.625245204046
Mg  0.000120595067044 0.501198843161 0.751550227786
O  0.124266357332 0.623020987576 0.877219716707
Mg  0.000337202486749 0.746673860943 0.00245195127605
O  0.123612833189 0.874701193478 0.124770775252
Mg  0.00190774212141 0.747496442119 0.250109485869
O  0.123962186205 0.874524978384 0.375156400684
Mg  0.00140026827415 0.750943017965 0.498493675914
O  0.126946907547 0.873451279038 0.626013356457
Mg  -0.000328163178009 0.749515551798 0.749569405855
O  0.125753811684 0.87250909733 0.874567280749
Mg  0.252258251415 -0.000836222418391 -0.000880418351536
O  0.373615996318 0.12645604708 0.123525320679
Mg  0.248506139219 -0.000204070374565 0.251310052035
O  0.378031256724 0.12192431828 0.374971455904
Mg  0.250260750358 0.00276587404155 0.497171124575
O  0.375011227313 0.124753173016 0.622833343212
Mg  0.249984777381 0.00195876777248 0.747949325076
O  0.377697017485 0.122867453977 0.874453409281
Mg  0.250658257242 0.25078499438 -0.00254884172233
O  0.376452486835 0.375780448536 0.123483488065
Mg  0.248598597852 0.249554426914 0.253040556995
O  0.375204143262 0.376645958293 0.372492081385
Mg  0.252048911955 0.25029101891 0.497874823281
O  0.374040802904 0.373239430797 0.624387929606
Mg  0.248804262755 0.251696996068 0.750158207795
O  0.373442325833 0.378547631693 0.874514333289
Mg  0.249590134126 0.501214881416 -0.000514990515693
O  0.375979863315 0.623002115924 0.126560865115
Mg  0.248503278552 0.500975249366 0.250541140474
O  0.375242071284 0.623350554002 0.376245662796
Mg  0.248020834303 0.501046050044 0.501724086283
O  0.371665042089 0.62543006842 0.627323888313
Mg  0.250835921371 0.497897301538 0.749841253943
O  0.374649777423 0.62774367474 0.872324691608
Mg  0.250102283365 0.749145999192 0.00245470313226
O  0.372646026848 0.874546755453 0.12505872134
Mg  0.249106940009 0.751557350074 0.247997599406
O  0.374587632138 0.876805999539 0.372731171388
Mg  0.249244579894 0.747986874543 0.502397170548
O  0.374260726789 0.874934760359 0.626324038451
Mg  0.247201159288 0.751782127121 0.751294829094
O  0.376695633793 0.873630721364 0.87492621637
Mg  0.499832244506 -0.00221322978054 -0.000457728186472
O  0.624268556071 0.124900826524 0.125553561396
Mg  0.502461729688 -0.000744575288283 0.250264029707
O  0.62349615732 0.126223191657 0.376560727828
Mg  0.501227137305 0.000910277636405 0.49643157282
O  0.625893948509 0.125598637049 0.624574282271
Mg  0.501431978808 -0.00020607716723 0.748888466057
O  0.624444348905 0.12435291724 0.87826626838
Mg  0.500730773504 0.248259170598 -2.39012707172e-05
O  0.626448799366 0.374009315094 0.126287874008
Mg  0.49825800326 0.253188889623 0.24879589072
O  0.62368247524 0.374212588688 0.374245863601
Mg  0.49979735349 0.252233895939 0.499182518255
O  0.625706466628 0.376458206312 0.623488899692
Mg  0.499756460937 0.250818181501 0.750089099398
O  0.623608797571 0.378835360284 0.873707762845
Mg  0.497637256609 0.500192606514 0.00289439066148
O  0.626114626668 0.62267866494 0.125952832247
Mg  0.499930150726 0.498641624227 0.249848571478
O  0.623807304944 0.627665455256 0.37307458406
Mg  0.503238815809 0.498938833192 0.499359948971
O  0.625437660584 0.625280412591 0.62728506662
Mg  0.500475885684 0.499819460768 0.748059665441
O  0.626432497208 0.621451588616 0.875433923977
Mg  0.498475724829 0.750680574363 0.00239298584916
O  0.624664569299 0.874721316537 0.124413549614
Mg  0.499121983771 0.750005434323 0.251983705482
O  0.62404946232 0.873878186215 0.374179576657
Mg  0.497976476141 0.749558003398 0.503409469088
O  0.624227422532 0.877379597157 0.625075183437
Mg  0.499009064256 0.749525655614 0.752895330557
O  0.623367936107 0.875420401344 0.875407194738
Mg  0.750868774386 -0.00109247177159 -0.00192346226993
O  0.873540528323 0.124572861104 0.128349130727
Mg  0.749946626303 0.00165371949902 0.250884180234
O  0.871758105208 0.126365532512 0.376508075675
Mg  0.748528967672 0.00214788164585 0.499424504002
O  0.874715875619 0.127418588666 0.624365152823
Mg  0.748892418265 0.000353695285514 0.750138681592
O  0.877015682011 0.125713867107 0.873255255687
Mg  0.749332921971 0.248813743146 0.000780682639124
O  0.877202388794 0.373220872645 0.124412457696
Mg  0.750614686607 0.251301975902 0.250499453494
O  0.873769994074 0.374490813949 0.37659987885
Mg  0.753359977734 0.248031968082 0.499402175642
O  0.875212820112 0.376382614409 0.623550585267
Mg  0.752289087217 0.247392935176 0.750577226873
O  0.87611208041 0.374819720707 0.872067602756
Mg  0.748411083705 0.501776008049 0.00131547235258
O  0.877819430517 0.625023915733 0.122256443957
Mg  0.74852419804 0.498579044667 0.25390910773
O  0.876280127746 0.625862546657 0.373482015881
Mg  0.747256628835 0.501347310031 0.500656400217
O  0.875818056815 0.624442608779 0.622593248876
Mg  0.749496852646 0.499060239268 0.748280987217
O  0.876388878849 0.625344513616 0.875441492477
Mg  0.748651752525 0.753430325928 -0.00142269401231
O  0.877495449314 0.872978875698 0.124334131163
Mg  0.750016381275 0.752625650406 0.248702794996
O  0.87373801314 0.875793036268 0.374832237459
Mg  0.749440155471 0.747466362606 0.503648579078
O  0.875534145611 0.876403507668 0.626405523466
Mg  0.750065137701 0.748653361226 0.750760702106
O  0.873174331648 0.875466814109 0.875675362861
CELL_PARAMETERS
0.0 15.945464628 15.945464628
15.945464628 0.0 15.945464628
15.945464628 15.945464628 -0.0
 K_POINTS automatic
2 2 2 0 0 0
