fake poscar
1.0
5.291770000000000 0 0
0 5.291770000000000 0
0 0 5.291770000000000
C
2
Direct
0.000000000 0.000000000 0.000000000   
0.000000000 0.000000000 0.100000000   
