high sym                                
   1.0000000000000000     
    -0.0000000000000000   2.1095 2.1095
     2.1095   -0.0000000000000000    2.1095
    2.1095 2.1095   -0.0000000000000000
   Mg O
     1 1
Direct
  0.0000000000000000 -0.0000000000000000 -0.0000000000000000
  0.500000000000000  0.500000000000000  0.500000000000000

  0.00000000E+00  0.00000000E+00  0.00000000E+00
  0.00000000E+00  0.00000000E+00  0.00000000E+00
