supercell                               
   1.0000000000000000     
    -0.0462081722028677    8.1665718982295861    8.2234939669317644
     8.1242859324397259    0.0084273402336647    8.1688584544952327
     8.1825348430008376    8.1701852963541661   -0.0498215703274477
   Si   Ge
    37    17
Direct
  0.9982512779854176  0.0020221969509819  0.0007887018322918
  0.0836597309517302  0.0807732641707304  0.0853995396178178
  0.0032396315203229  0.9997839101305033  0.6655388695426083
  0.0832307087662087  0.0804241063447577  0.7500745586608772
  0.0002428856687402  0.3313601349331918  0.0018499101743359
  0.0846569679788374  0.4154331540979612  0.0850979151679780
  0.9976671219622730  0.3356491228942318  0.3336880839275338
  0.0856945987141771  0.4148062461762621  0.4159091852086689
  0.9990910607155570  0.3313479340434213  0.6690510470561861
  0.0008873808047980  0.6666958174196509  0.9972273016900104
  0.0830169634023576  0.7520488979542890  0.0820928467723192
  0.0825862652974934  0.7482912351590230  0.4180314015936446
  0.9962115607515756  0.6674784177971205  0.6690423242368126
  0.0808039945420234  0.7495582940900505  0.7523850772982925
  0.3305669184296534  0.0008361575047005  0.0019290349673184
  0.3335910735195711  0.9997841532727350  0.3313065089561675
  0.4147611689545130  0.0851230673457621  0.4156369430170344
  0.3314521294122770  0.3350800042159747  0.0002399203638390
  0.4147928680189779  0.4165064959552183  0.4173208986640304
  0.3342629420671130  0.3343567587566980  0.6635452857902209
  0.4173533597169765  0.4145877745637421  0.7501749991375277
  0.3359750185328920  0.6655116240998851  0.0002591048005982
  0.4146375450119706  0.7506951392997578  0.4183806183968670
  0.3334684518338022  0.6635818460119154  0.6676727195456138
  0.4155154517530875  0.7493657156028490  0.7532641949397956
  0.6692575126900664  0.0001901344961439  0.9980660229425098
  0.7479136324814206  0.0858364725071539  0.0829254219344051
  0.6659549327346923  0.0037499239923520  0.3317419328071125
  0.7469540645260366  0.0832307134881205  0.4170459534274045
  0.6642466574663075  0.9995828584782700  0.6681458299462122
  0.7496703902624517  0.0808174056638293  0.7496220222445729
  0.6654876696991892  0.3321463811918406  0.0020220373366584
  0.7510295686072439  0.4175377029030614  0.0810218251484685
  0.7514601244146348  0.4164202316678001  0.4163521628448095
  0.6673278585303635  0.3343914037658706  0.6666169035312919
  0.7510597200105167  0.7513458333459937  0.4128271879638703
  0.7482692212309487  0.7535253974890423  0.7486692824513241
  0.9992842289018711  0.9989234643391356  0.3368255360855272
  0.0814648293875777  0.0857024722544040  0.4162594965467719
  0.0833415348797502  0.4164396448103744  0.7508208979654540
  0.0004078848719828  0.6635644866862478  0.3339546618813003
  0.4174341910780441  0.0833809899949784  0.0826700291964357
  0.3321189669573599  0.0010788110829836  0.6658331405826132
  0.4157012404082323  0.0836259662842949  0.7513106285075608
  0.4170454598369417  0.4166914928235883  0.0812667601418653
  0.3332967267340052  0.3319059878369330  0.3321266192872869
  0.4173781709841720  0.7507811342273598  0.0840189061975920
  0.3354038825525620  0.6674167784188541  0.3303853865430426
  0.6665152533205543  0.3364964757561850  0.3332384884029977
  0.7485542887711105  0.4181161401946696  0.7516693831812091
  0.6645258717536180  0.6671332986016694  0.0000702336374161
  0.7496953685711318  0.7514387941026968  0.0835903310363051
  0.6685921647875475  0.6661678702118863  0.3306321436057615
  0.6670071340359911  0.6648955443955060  0.6657648338142010

  0.00000000E+00  0.00000000E+00  0.00000000E+00
  0.00000000E+00  0.00000000E+00  0.00000000E+00
  0.00000000E+00  0.00000000E+00  0.00000000E+00
  0.00000000E+00  0.00000000E+00  0.00000000E+00
  0.00000000E+00  0.00000000E+00  0.00000000E+00
  0.00000000E+00  0.00000000E+00  0.00000000E+00
  0.00000000E+00  0.00000000E+00  0.00000000E+00
  0.00000000E+00  0.00000000E+00  0.00000000E+00
  0.00000000E+00  0.00000000E+00  0.00000000E+00
  0.00000000E+00  0.00000000E+00  0.00000000E+00
  0.00000000E+00  0.00000000E+00  0.00000000E+00
  0.00000000E+00  0.00000000E+00  0.00000000E+00
  0.00000000E+00  0.00000000E+00  0.00000000E+00
  0.00000000E+00  0.00000000E+00  0.00000000E+00
  0.00000000E+00  0.00000000E+00  0.00000000E+00
  0.00000000E+00  0.00000000E+00  0.00000000E+00
  0.00000000E+00  0.00000000E+00  0.00000000E+00
  0.00000000E+00  0.00000000E+00  0.00000000E+00
  0.00000000E+00  0.00000000E+00  0.00000000E+00
  0.00000000E+00  0.00000000E+00  0.00000000E+00
  0.00000000E+00  0.00000000E+00  0.00000000E+00
  0.00000000E+00  0.00000000E+00  0.00000000E+00
  0.00000000E+00  0.00000000E+00  0.00000000E+00
  0.00000000E+00  0.00000000E+00  0.00000000E+00
  0.00000000E+00  0.00000000E+00  0.00000000E+00
  0.00000000E+00  0.00000000E+00  0.00000000E+00
  0.00000000E+00  0.00000000E+00  0.00000000E+00
  0.00000000E+00  0.00000000E+00  0.00000000E+00
  0.00000000E+00  0.00000000E+00  0.00000000E+00
  0.00000000E+00  0.00000000E+00  0.00000000E+00
  0.00000000E+00  0.00000000E+00  0.00000000E+00
  0.00000000E+00  0.00000000E+00  0.00000000E+00
  0.00000000E+00  0.00000000E+00  0.00000000E+00
  0.00000000E+00  0.00000000E+00  0.00000000E+00
  0.00000000E+00  0.00000000E+00  0.00000000E+00
  0.00000000E+00  0.00000000E+00  0.00000000E+00
  0.00000000E+00  0.00000000E+00  0.00000000E+00
  0.00000000E+00  0.00000000E+00  0.00000000E+00
  0.00000000E+00  0.00000000E+00  0.00000000E+00
  0.00000000E+00  0.00000000E+00  0.00000000E+00
  0.00000000E+00  0.00000000E+00  0.00000000E+00
  0.00000000E+00  0.00000000E+00  0.00000000E+00
  0.00000000E+00  0.00000000E+00  0.00000000E+00
  0.00000000E+00  0.00000000E+00  0.00000000E+00
  0.00000000E+00  0.00000000E+00  0.00000000E+00
  0.00000000E+00  0.00000000E+00  0.00000000E+00
  0.00000000E+00  0.00000000E+00  0.00000000E+00
  0.00000000E+00  0.00000000E+00  0.00000000E+00
  0.00000000E+00  0.00000000E+00  0.00000000E+00
  0.00000000E+00  0.00000000E+00  0.00000000E+00
  0.00000000E+00  0.00000000E+00  0.00000000E+00
  0.00000000E+00  0.00000000E+00  0.00000000E+00
  0.00000000E+00  0.00000000E+00  0.00000000E+00
  0.00000000E+00  0.00000000E+00  0.00000000E+00
