supercell
 1.000000
 -0.046208172202867714 8.166571898229586 8.223493966931764
 8.124285932439726 0.00842734023366471 8.168858454495233
 8.182534843000838 8.170185296354166 -0.04982157032744766
  Si  Ge  
  37  17  
Direct
  -0.0017487220145795388  0.0020221969509813093  0.0007887018322927681
  0.08365973095172692  0.0807732641707309  0.08539953961781953
  0.0032396315203224325  -0.00021608986949365832  0.6655388695426115
  0.08323070876620889  0.0804241063447603  0.7500745586608779
  0.00024288566874186568  0.3313601349331948  0.0018499101743364998
  0.08465696797883493  0.4154331540979639  0.08509791516798026
  -0.0023328780377262492  0.3356491228942333  0.3336880839275318
  0.08569459871417884  0.41480624617626016  0.41590918520867054
  -0.0009089392844413291  0.3313479340434179  0.6690510470561838
  0.0008873808048009968  0.6666958174196479  -0.0027726983099901625
  0.08301696340236031  0.7520488979542896  0.08209284677231965
  0.08258626529749358  0.7482912351590202  0.4180314015936472
  -0.0037884392484248686  0.6674784177971238  0.669042324236813
  0.08080399454202525  0.7495582940900514  0.752385077298295
  0.3305669184296551  0.0008361575047027836  0.0019290349673161677
  0.33359107351957096  -0.00021584672726635001  0.3313065089561649
  0.4147611689545123  0.08512306734576389  0.4156369430170318
  0.33145212941227387  0.3350800042159716  0.00023992036384012927
  0.4147928680189809  0.41650649595522166  0.4173208986640339
  0.33426294206711354  0.33435675875669574  0.6635452857902191
  0.4173533597169798  0.41458777456374224  0.7501749991375313
  0.3359750185328936  0.6655116240998873  0.00025910480059665453
  0.41463754501196987  0.7506951392997596  0.4183806183968678
  0.3334684518338028  0.663581846011914  0.6676727195456129
  0.4155154517530849  0.749365715602848  0.7532641949397956
  0.6692575126900673  0.00019013449614474487  -0.0019339770574931525
  0.7479136324814214  0.08583647250715243  0.082925421934404
  0.665954932734695  0.003749923992355242  0.33174193280711395
  0.7469540645260331  0.08323071348811983  0.4170459534274027
  0.6642466574663056  -0.0004171415217266716  0.6681458299462089
  0.7496703902624529  0.08081740566383172  0.7496220222445695
  0.66548766969919  0.3321463811918438  0.002022037336660454
  0.7510295686072436  0.4175377029030648  0.08102182514846556
  0.7514601244146344  0.41642023166779935  0.4163521628448065
  0.6673278585303613  0.3343914037658713  0.666616903531294
  0.7510597200105161  0.7513458333459911  0.4128271879638732
  0.7482692212309463  0.7535253974890446  0.7486692824513274
  -0.0007157710981284497  -0.0010765356608659865  0.3368255360855257
  0.08146482938757522  0.08570247225440476  0.416259496546771
  0.0833415348797481  0.41643964481037327  0.7508208979654556
  0.0004078848719853423  0.6635644866862489  0.3339546618812983
  0.4174341910780438  0.08338098999497656  0.08267002919643218
  0.33211896695735643  0.001078811082986103  0.6658331405826098
  0.41570124040822964  0.0836259662842943  0.7513106285075621
  0.4170454598369422  0.4166914928235881  0.08126676014186207
  0.3332967267340085  0.33190598783692954  0.3321266192872877
  0.4173781709841723  0.7507811342273617  0.08401890619759189
  0.3354038825525597  0.6674167784188568  0.33038538654303995
  0.6665152533205514  0.3364964757561868  0.3332384884029953
  0.7485542887711119  0.41811614019467247  0.751669383181207
  0.664525871753617  0.6671332986016728  7.02336374155399e-05
  0.7496953685711292  0.7514387941026945  0.08359033103630376
  0.6685921647875506  0.6661678702118867  0.33063214360576
  0.6670071340359904  0.6648955443955085  0.6657648338142004
