supercell                               
   1.0000000000000000     
     0.0000000000000000    8.1994254902135530    8.1994254902135530
     8.1994254902135530    0.0000000000000000    8.1994254902135530
     8.1994254902135530    8.1994254902135530    0.0000000000000000
   Si   Ge
    42    12
Direct
  0.0026477947510628  0.9998390617453197  0.0024079229559391
  0.0796630216495373  0.0825253867338844  0.0888243312967134
  0.0037977063321861  0.9967276494140265  0.3330249333671560
  0.0836470228551036  0.0852890611400596  0.4109528147553974
  0.9992375834253906  0.9988992254465074  0.6695772684461190
  0.9996240339915303  0.3336300915156585  0.9981237203538456
  0.0033979745803165  0.3342597155450591  0.3278286134767612
  0.0850518193735326  0.4185473256560641  0.4197728972339050
  0.0006048772949541  0.3316839883542784  0.6627923451153208
  0.0752257159142360  0.4200559608962848  0.7529834355332952
  0.0007645659402655  0.6625105512126623  0.0019542291000150
  0.0826649224226941  0.7477451883143544  0.0814262827623935
  0.9987483326681641  0.6713643721273712  0.3343839421670722
  0.0864474844483567  0.7531488439165770  0.4197711565288813
  0.0049704105019970  0.6644168825904231  0.6649652431700375
  0.0824785135516990  0.7475493225819179  0.7464240316066508
  0.3319563916592827  0.9969220229749851  0.9969792682995333
  0.4167858489924328  0.0860295304615875  0.0814515940083993
  0.3304616112748349  0.9988797515174710  0.3352257879559275
  0.4195896111644615  0.0831510725229663  0.4138217211353705
  0.3412678407472143  0.9959787686944424  0.6647578313025093
  0.4139036768728701  0.0857225465912279  0.7471559524821387
  0.3261638887141416  0.3368081938889631  0.0022604120457146
  0.4197438334197940  0.4190596041399814  0.0815578608536427
  0.3360767696704841  0.3251488548241923  0.3368687814698603
  0.4203233956413328  0.4190488554790335  0.4175805729892019
  0.3306644239858372  0.3320648576231235  0.6690921890319501
  0.3269624393811768  0.6730737835755747  0.9999645662792958
  0.4132553924051763  0.7484389959453068  0.0900994242726441
  0.4098564337635437  0.7536845797131164  0.4194204477214356
  0.6707411375033203  0.0007642964656114  0.9928741737275857
  0.6649979046951060  0.0074570177158151  0.3303603450838750
  0.7514448257900810  0.0812013817762818  0.4214686604734581
  0.6660288970960835  0.0022687753236710  0.6702141176047078
  0.7521956980861191  0.0869911685009725  0.7480354524419468
  0.7497555688970152  0.4214788302044994  0.0782443211052595
  0.6665186314445464  0.3381566199532386  0.3273400259399608
  0.7499927480088360  0.4137775180906758  0.4157853595260548
  0.7503161860455450  0.4128080021862104  0.7520623070750503
  0.6667608402530476  0.6707073524874403  0.0020149309714910
  0.7520974181023377  0.7540843316660784  0.4114218505644445
  0.7529609415937415  0.7465525196680147  0.7507696865276401
  0.0858206018148451  0.0798944904030776  0.7506139591187804
  0.0822172421326997  0.4209698370146739  0.0821362387064681
  0.4198356015168088  0.4110646232264159  0.7494270292199658
  0.3334661484548107  0.6650455427614972  0.3318124058277405
  0.3322738173808801  0.6669326894736756  0.6627295974559786
  0.4237677735132834  0.7492561711545207  0.7464099309131669
  0.7441207742308080  0.0859040405560805  0.0860012681352131
  0.6650029658126897  0.3346798819208203  0.0001345109273956
  0.6656120946450912  0.3299368309111941  0.6640372431634631
  0.7502059352305466  0.7478177584444765  0.0859099059044226
  0.6670661398931443  0.6642714199854822  0.3298659024521626
  0.6654390736250591  0.6678026477454679  0.6687622422037762

  0.00000000E+00  0.00000000E+00  0.00000000E+00
  0.00000000E+00  0.00000000E+00  0.00000000E+00
  0.00000000E+00  0.00000000E+00  0.00000000E+00
  0.00000000E+00  0.00000000E+00  0.00000000E+00
  0.00000000E+00  0.00000000E+00  0.00000000E+00
  0.00000000E+00  0.00000000E+00  0.00000000E+00
  0.00000000E+00  0.00000000E+00  0.00000000E+00
  0.00000000E+00  0.00000000E+00  0.00000000E+00
  0.00000000E+00  0.00000000E+00  0.00000000E+00
  0.00000000E+00  0.00000000E+00  0.00000000E+00
  0.00000000E+00  0.00000000E+00  0.00000000E+00
  0.00000000E+00  0.00000000E+00  0.00000000E+00
  0.00000000E+00  0.00000000E+00  0.00000000E+00
  0.00000000E+00  0.00000000E+00  0.00000000E+00
  0.00000000E+00  0.00000000E+00  0.00000000E+00
  0.00000000E+00  0.00000000E+00  0.00000000E+00
  0.00000000E+00  0.00000000E+00  0.00000000E+00
  0.00000000E+00  0.00000000E+00  0.00000000E+00
  0.00000000E+00  0.00000000E+00  0.00000000E+00
  0.00000000E+00  0.00000000E+00  0.00000000E+00
  0.00000000E+00  0.00000000E+00  0.00000000E+00
  0.00000000E+00  0.00000000E+00  0.00000000E+00
  0.00000000E+00  0.00000000E+00  0.00000000E+00
  0.00000000E+00  0.00000000E+00  0.00000000E+00
  0.00000000E+00  0.00000000E+00  0.00000000E+00
  0.00000000E+00  0.00000000E+00  0.00000000E+00
  0.00000000E+00  0.00000000E+00  0.00000000E+00
  0.00000000E+00  0.00000000E+00  0.00000000E+00
  0.00000000E+00  0.00000000E+00  0.00000000E+00
  0.00000000E+00  0.00000000E+00  0.00000000E+00
  0.00000000E+00  0.00000000E+00  0.00000000E+00
  0.00000000E+00  0.00000000E+00  0.00000000E+00
  0.00000000E+00  0.00000000E+00  0.00000000E+00
  0.00000000E+00  0.00000000E+00  0.00000000E+00
  0.00000000E+00  0.00000000E+00  0.00000000E+00
  0.00000000E+00  0.00000000E+00  0.00000000E+00
  0.00000000E+00  0.00000000E+00  0.00000000E+00
  0.00000000E+00  0.00000000E+00  0.00000000E+00
  0.00000000E+00  0.00000000E+00  0.00000000E+00
  0.00000000E+00  0.00000000E+00  0.00000000E+00
  0.00000000E+00  0.00000000E+00  0.00000000E+00
  0.00000000E+00  0.00000000E+00  0.00000000E+00
  0.00000000E+00  0.00000000E+00  0.00000000E+00
  0.00000000E+00  0.00000000E+00  0.00000000E+00
  0.00000000E+00  0.00000000E+00  0.00000000E+00
  0.00000000E+00  0.00000000E+00  0.00000000E+00
  0.00000000E+00  0.00000000E+00  0.00000000E+00
  0.00000000E+00  0.00000000E+00  0.00000000E+00
  0.00000000E+00  0.00000000E+00  0.00000000E+00
  0.00000000E+00  0.00000000E+00  0.00000000E+00
  0.00000000E+00  0.00000000E+00  0.00000000E+00
  0.00000000E+00  0.00000000E+00  0.00000000E+00
  0.00000000E+00  0.00000000E+00  0.00000000E+00
  0.00000000E+00  0.00000000E+00  0.00000000E+00
