supercell
 1.000000
 0.0 8.199425490213553 8.199425490213553
 8.199425490213553 0.0 8.199425490213553
 8.199425490213553 8.199425490213553 0.0
  Si  Ge  
  42  12  
Direct
  0.0026477947510617312  -0.0001609382546796179  0.0024079229559390257
  0.07966302164953816  0.08252538673388464  0.08882433129671222
  0.003797706332183964  -0.0032723505859766303  0.3330249333671525
  0.08364702285510235  0.08528906114005942  0.4109528147553991
  -0.0007624165746114843  -0.0011007745534915283  0.6695772684461191
  -0.0003759660084714789  0.33363009151566014  -0.0018762796461573028
  0.0033979745803174033  0.3342597155450596  0.3278286134767585
  0.08505181937352907  0.4185473256560644  0.4197728972339085
  0.0006048772949542869  0.3316839883542777  0.6627923451153201
  0.07522571591423585  0.42005596089628505  0.752983435533298
  0.0007645659402687466  0.6625105512126598  0.0019542291000150813
  0.08266492242269285  0.7477451883143561  0.08142628276239094
  -0.0012516673318327953  0.6713643721273703  0.33438394216707046
  0.0864474844483546  0.753148843916577  0.4197711565288817
  0.00497041050199426  0.6644168825904229  0.6649652431700385
  0.0824785135516985  0.7475493225819152  0.746424031606649
  0.33195639165928403  -0.0030779770250164984  -0.003020731700463797
  0.4167858489924327  0.08602953046158407  0.08145159400840268
  0.33046161127483326  -0.0011202484825266756  0.33522578795592683
  0.4195896111644618  0.08315107252296369  0.41382172113536964
  0.3412678407472135  -0.004021231305560757  0.6647578313025113
  0.41390367687287033  0.08572254659122788  0.7471559524821403
  0.3261638887141406  0.33680819388896643  0.0022604120457176413
  0.4197438334197934  0.4190596041399791  0.08155786085364286
  0.33607676967048516  0.32514885482419364  0.3368687814698569
  0.42032339564132987  0.41904885547903686  0.4175805729892006
  0.3306644239858375  0.33206485762312365  0.6690921890319512
  0.32696243938117536  0.6730737835755778  -3.5433720706301575e-05
  0.413255392405177  0.7484389959453104  0.09009942427264372
  0.4098564337635435  0.7536845797131158  0.4194204477214356
  0.670741137503323  0.0007642964656122686  -0.007125826272414204
  0.6649979046951066  0.007457017715818526  0.3303603450838778
  0.7514448257900813  0.08120138177628289  0.4214686604734547
  0.6660288970960824  0.0022687753236679264  0.6702141176047097
  0.7521956980861177  0.0869911685009725  0.7480354524419444
  0.749755568897017  0.4214788302044976  0.07824432110525725
  0.6665186314445442  0.33815661995323915  0.32734002593996214
  0.749992748008834  0.4137775180906771  0.41578535952605744
  0.7503161860455454  0.4128080021862126  0.7520623070750512
  0.6667608402530507  0.6707073524874398  0.0020149309714936336
  0.7520974181023375  0.7540843316660751  0.4114218505644428
  0.7529609415937403  0.7465525196680142  0.750769686527637
  0.08582060181484415  0.07989449040307724  0.7506139591187799
  0.0822172421327017  0.42096983701467233  0.08213623870646763
  0.41983560151681215  0.4110646232264124  0.7494270292199658
  0.33346614845480754  0.6650455427615001  0.33181240582773974
  0.3322738173808779  0.6669326894736746  0.6627295974559788
  0.42376777351328576  0.7492561711545188  0.7464099309131675
  0.7441207742308114  0.08590404055607792  0.0860012681352143
  0.6650029658126868  0.33467988192081677  0.00013451092739247272
  0.6656120946450885  0.32993683091119114  0.664037243163466
  0.7502059352305447  0.7478177584444795  0.08590990590441994
  0.6670661398931454  0.6642714199854802  0.32986590245216507
  0.6654390736250599  0.6678026477454646  0.6687622422037743
