&control
  calculation = 'scf'
    restart_mode='from_scratch',
  prefix = 'PREFIX'
    tstress = .true.
    tprnfor = .true.
    pseudo_dir = '/users/kfg/psuedo/gbrv_1.5/',
  outdir = '/tmp/DIR'
    disk_io = 'low'
    wf_collect = .true.
    verbosity = 'high'    
 /
&system
    ibrav=  0, 
    nat=  2, 
    ntyp= 1,
    ecutwfc = 35,
    ecutrho = 200,
    q2sigma = 1
    ecfixed = 34.5
    qcutz = 800
    occupations = 'smearing'
    smearing = 'gaussian',
    degauss  = 0.015
    lda_plus_u = .false.
 /
&electrons
    diagonalization='david'
    mixing_mode = 'local-TF'
    mixing_beta = 0.3
    conv_thr =  1.0d-9
 /
&ions
  ion_dynamics='bfgs',
/
&cell
 cell_dynamics = 'bfgs'
/
ATOMIC_SPECIES
Si1 28.0855 si.pbesol.UPF
ATOMIC_POSITIONS crystal
Si1 0.000000000 0.000000000 0.000000000   
Si1 0.250000000 0.250000000 0.250000000   
CELL_PARAMETERS
  -0.000000000   5.132041712   5.132041712
   5.132041712  -0.000000000   5.132041712
   5.132041712   5.132041712  -0.000000000
K_POINTS automatic
8 8 8 0 0 0
