&control
  calculation = 'scf'
    restart_mode='from_scratch',
prefix = 'PREFIX'
    tstress = .true.
    tprnfor = .true.
    pseudo_dir = '/users/kfg/psuedo/gbrv_1.5/',
  outdir = '/tmp/DIR'
    disk_io = 'low'
    wf_collect = .true.
    verbosity = 'high'    
 /
&system
    ibrav=  0, 
   nat  = 128
    ntyp= 1,
    ecutwfc = 35,
    ecutrho = 200,
    q2sigma = 1
    ecfixed = 34.5
    qcutz = 800
    occupations = 'smearing'
    smearing = 'gaussian',
    degauss  = 0.015
    lda_plus_u = .false.
 /
&electrons
    diagonalization='david'
    mixing_mode = 'local-TF'
    mixing_beta = 0.3
    conv_thr =  1.0d-9
 /
&ions
  ion_dynamics='bfgs',
/
&cell
 cell_dynamics = 'bfgs'
/
ATOMIC_SPECIES
Si   28.0855  si.pbesol.UPF
ATOMIC_POSITIONS crystal
Si  0.0 0.0 0.0
Si  0.0625 0.0625 0.0625
Si  0.0 0.0 0.25
Si  0.0625 0.0625 0.3125
Si  0.0 0.0 0.5
Si  0.0625 0.0625 0.5625
Si  0.0 0.0 0.75
Si  0.0625 0.0625 0.8125
Si  0.0 0.25 0.0
Si  0.0625 0.3125 0.0625
Si  0.0 0.25 0.25
Si  0.0625 0.3125 0.3125
Si  0.0 0.25 0.5
Si  0.0625 0.3125 0.5625
Si  0.0 0.25 0.75
Si  0.0625 0.3125 0.8125
Si  0.0 0.5 0.0
Si  0.0625 0.5625 0.0625
Si  0.0 0.5 0.25
Si  0.0625 0.5625 0.3125
Si  0.0 0.5 0.5
Si  0.0625 0.5625 0.5625
Si  0.0 0.5 0.75
Si  0.0625 0.5625 0.8125
Si  0.0 0.75 0.0
Si  0.0625 0.8125 0.0625
Si  0.0 0.75 0.25
Si  0.0625 0.8125 0.3125
Si  0.0 0.75 0.5
Si  0.0625 0.8125 0.5625
Si  0.0 0.75 0.75
Si  0.0625 0.8125 0.8125
Si  0.25 0.0 0.0
Si  0.3125 0.0625 0.0625
Si  0.25 0.0 0.25
Si  0.3125 0.0625 0.3125
Si  0.25 0.0 0.5
Si  0.3125 0.0625 0.5625
Si  0.25 0.0 0.75
Si  0.3125 0.0625 0.8125
Si  0.25 0.25 0.0
Si  0.3125 0.3125 0.0625
Si  0.25 0.25 0.25
Si  0.3125 0.3125 0.3125
Si  0.25 0.25 0.5
Si  0.3125 0.3125 0.5625
Si  0.25 0.25 0.75
Si  0.3125 0.3125 0.8125
Si  0.25 0.5 0.0
Si  0.3125 0.5625 0.0625
Si  0.25 0.5 0.25
Si  0.3125 0.5625 0.3125
Si  0.25 0.5 0.5
Si  0.3125 0.5625 0.5625
Si  0.25 0.5 0.75
Si  0.3125 0.5625 0.8125
Si  0.25 0.75 0.0
Si  0.3125 0.8125 0.0625
Si  0.25 0.75 0.25
Si  0.3125 0.8125 0.3125
Si  0.25 0.75 0.5
Si  0.3125 0.8125 0.5625
Si  0.25 0.75 0.75
Si  0.3125 0.8125 0.8125
Si  0.5 0.0 0.0
Si  0.5625 0.0625 0.0625
Si  0.5 0.0 0.25
Si  0.5625 0.0625 0.3125
Si  0.5 0.0 0.5
Si  0.5625 0.0625 0.5625
Si  0.5 0.0 0.75
Si  0.5625 0.0625 0.8125
Si  0.5 0.25 0.0
Si  0.5625 0.3125 0.0625
Si  0.5 0.25 0.25
Si  0.5625 0.3125 0.3125
Si  0.5 0.25 0.5
Si  0.5625 0.3125 0.5625
Si  0.5 0.25 0.75
Si  0.5625 0.3125 0.8125
Si  0.5 0.5 0.0
Si  0.5625 0.5625 0.0625
Si  0.5 0.5 0.25
Si  0.5625 0.5625 0.3125
Si  0.5 0.5 0.5
Si  0.5625 0.5625 0.5625
Si  0.5 0.5 0.75
Si  0.5625 0.5625 0.8125
Si  0.5 0.75 0.0
Si  0.5625 0.8125 0.0625
Si  0.5 0.75 0.25
Si  0.5625 0.8125 0.3125
Si  0.5 0.75 0.5
Si  0.5625 0.8125 0.5625
Si  0.5 0.75 0.75
Si  0.5625 0.8125 0.8125
Si  0.75 0.0 0.0
Si  0.8125 0.0625 0.0625
Si  0.75 0.0 0.25
Si  0.8125 0.0625 0.3125
Si  0.75 0.0 0.5
Si  0.8125 0.0625 0.5625
Si  0.75 0.0 0.75
Si  0.8125 0.0625 0.8125
Si  0.75 0.25 0.0
Si  0.8125 0.3125 0.0625
Si  0.75 0.25 0.25
Si  0.8125 0.3125 0.3125
Si  0.75 0.25 0.5
Si  0.8125 0.3125 0.5625
Si  0.75 0.25 0.75
Si  0.8125 0.3125 0.8125
Si  0.75 0.5 0.0
Si  0.8125 0.5625 0.0625
Si  0.75 0.5 0.25
Si  0.8125 0.5625 0.3125
Si  0.75 0.5 0.5
Si  0.8125 0.5625 0.5625
Si  0.75 0.5 0.75
Si  0.8125 0.5625 0.8125
Si  0.75 0.75 0.0
Si  0.8125 0.8125 0.0625
Si  0.75 0.75 0.25
Si  0.8125 0.8125 0.3125
Si  0.75 0.75 0.5
Si  0.8125 0.8125 0.5625
Si  0.75 0.75 0.75
Si  0.8125 0.8125 0.8125
CELL_PARAMETERS
-0.0 20.528166848 20.528166848
20.528166848 -0.0 20.528166848
20.528166848 20.528166848 -0.0
K_POINTS automatic
2 2 2 0 0 0
