&control
calculation = 'vc-relax'
    restart_mode='from_scratch',
prefix = 'PREFIX'
    tstress = .true.
    tprnfor = .true.
    pseudo_dir = '/users/kfg/psuedo/gbrv_1.5/',
  outdir = '/tmp/DIR'
    disk_io = 'low'
    wf_collect = .true.
    verbosity = 'low'    
 /
&system
    ibrav=  0, 
    nat=  2, 
    ntyp= 2,
ecutwfc = 41.0,
    ecutrho = 200,
    q2sigma = 1
    ecfixed = 40.0,
    qcutz = 800
occupations = "smearing",
degauss = 0.01
    lda_plus_u = .true.,Hubbard_U(1) = 3,
nspin = 2
    starting_magnetization(1) = 1.0
 /
&electrons
    diagonalization='david'
    mixing_mode = 'local-TF'
    mixing_beta = 0.3
conv_thr = 1d-8
 /
&ions
  ion_dynamics='bfgs',
/
&cell
 cell_dynamics = 'bfgs'
/
ATOMIC_SPECIES
Mn 54.9 mn.pbesol.UPF
O  15.999 o.pbesol.UPF
ATOMIC_POSITIONS crystal
Mn 0.000000000 -0.000000000 -0.000000000   
O 0.500000000 0.500000000 0.500000000   
CELL_PARAMETERS bohr
   4.240117009   4.240117009  -0.000000000
   4.240117009  -0.000000000   4.240117009
  -0.000000000   4.240117009   4.240117009
K_POINTS automatic
8 8 8 0 0 0
