&control
  calculation = 'scf'
    restart_mode='from_scratch',
prefix  = 'Si_diamond.scf.in.super.222.replace4912'
    tstress = .true.
    tprnfor = .true.
    pseudo_dir = '/users/kfg/psuedo/gbrv_1.5/',
outdir  = '/tmp/Si_diamond.scf.in.super.222.replace3205'
    disk_io = 'low'
    wf_collect = .true.
    verbosity = 'high'    
 /
&system
    ibrav=  0, 
   nat  = 16
    ntyp= 2,
    ecutwfc = 35,
    ecutrho = 200,
    q2sigma = 1
    ecfixed = 34.5
    qcutz = 800
    occupations = 'smearing'
    smearing = 'gaussian',
    degauss  = 0.015
    lda_plus_u = .false.
 /
&electrons
    diagonalization='david'
    mixing_mode = 'local-TF'
    mixing_beta = 0.3
    conv_thr =  1.0d-9
 /
&ions
  ion_dynamics='bfgs',
/
&cell
 cell_dynamics = 'bfgs'
/
ATOMIC_SPECIES
Si   28.0855  si.pbesol.UPF
Ge   72.59  ge.pbesol.UPF
ATOMIC_POSITIONS crystal
Si	0.03890825500628093   -0.03229986544896686   -0.005089411541968499
Si	0.12659454181970112   0.1344732442694406   0.11038106412262977
Si	-0.013940104844675342   0.027073163820594152   0.48741517410912866
Ge	0.11522561154414664   0.1467419111237601   0.6288685334010458
Si	-0.018418862646528013   0.515100502445935   0.010387184737590056
Si	0.14203365521740363   0.610496582509361   0.11915060916391175
Ge	0.002009204363352205   0.5184485605352726   0.49651880751718086
Ge	0.09778693492224053   0.6600704943137484   0.639857320690709
Ge	0.5059443913886398   -0.005989482592206266   -0.014740742677788342
Ge	0.6626428597332423   0.11490773073477896   0.10888423348134317
Ge	0.5095074091908387   -0.01578704419434092   0.4697902704594354
Ge	0.6148690530549739   0.11312770393181291   0.6297021365181921
Si	0.5161300721889911   0.4879136206109001   -0.0055870191568278904
Ge	0.6007975554250862   0.6141693900789157   0.1600672528579435
Ge	0.47180497768740653   0.49308441061114344   0.5328424256168208
Si	0.6281044459488998   0.6184690772498511   0.631552160700654
CELL_PARAMETERS bohr
-0.015066127876317005  10.367549407597078  10.512840777992574
10.133497361309026  -0.07593286963283224  10.573707519749089
10.240613798114335  10.5355325861589  -0.18304930643814057
K_POINTS automatic
4 4 4 0 0 0
