&control
  calculation = 'scf'
    restart_mode='from_scratch',
prefix  = 'Si_diamond.scf.in.super.222.replace746'
    tstress = .true.
    tprnfor = .true.
    pseudo_dir = '/users/kfg/psuedo/gbrv_1.5/',
outdir  = '/tmp/Si_diamond.scf.in.super.222.replace8009'
    disk_io = 'low'
    wf_collect = .true.
    verbosity = 'high'    
 /
&system
    ibrav=  0, 
   nat  = 16
    ntyp= 2,
    ecutwfc = 35,
    ecutrho = 200,
    q2sigma = 1
    ecfixed = 34.5
    qcutz = 800
    occupations = 'smearing'
    smearing = 'gaussian',
    degauss  = 0.015
    lda_plus_u = .false.
 /
&electrons
    diagonalization='david'
    mixing_mode = 'local-TF'
    mixing_beta = 0.3
    conv_thr =  1.0d-9
 /
&ions
  ion_dynamics='bfgs',
/
&cell
 cell_dynamics = 'bfgs'
/
ATOMIC_SPECIES
Si   28.0855  si.pbesol.UPF
Ge   72.59  ge.pbesol.UPF
ATOMIC_POSITIONS crystal
Ge	-0.003706950440246537   0.007259415043729904   -0.029091809158693888
Ge	0.13361638030188708   0.11674291865668943   0.10810951632823641
Ge	0.002928549806273262   -0.002807969212241721   0.5044885022135479
Ge	0.1423844344897989   0.15234205965365755   0.6032178870933494
Si	-0.011778233405372714   0.4822728313889487   0.015025193436699402
Si	0.11303900984945793   0.6308469314617964   0.11914203596681375
Si	-0.010915221043639444   0.5237319174562389   0.4914948559772142
Si	0.1132447692179927   0.6215299067369445   0.6460474166277133
Si	0.5168316692953687   -0.015539326970119612   -0.00029153656158424456
Si	0.6150295154152287   0.1131431168059347   0.1302359950270238
Si	0.5246102964299642   -0.014731236448904977   0.49942401445452034
Ge	0.6411993986495177   0.13273080882426666   0.6252348096335425
Ge	0.48136239408404263   0.504745606633387   0.00776973224354215
Si	0.6276448040308926   0.6237615250672436   0.12856351593300547
Si	0.4915768660758511   0.5169556961518569   0.5007468721719868
Ge	0.6229323172429831   0.6070157987505721   0.6498829986130829
CELL_PARAMETERS bohr
-0.1206516942906817  10.71267536498169  10.38144143313126
10.327049038220864  -0.10848797380291027  10.369277712643488
10.245135175823819  10.618597782096876  -0.026574111405866366
K_POINTS automatic
4 4 4 0 0 0
