&control
  calculation = 'scf'
    restart_mode='from_scratch',
prefix  = 'Si_diamond.scf.in.super.222.replace4299'
    tstress = .true.
    tprnfor = .true.
    pseudo_dir = '/users/kfg/psuedo/gbrv_1.5/',
outdir  = '/tmp/Si_diamond.scf.in.super.222.replace6663'
    disk_io = 'low'
    wf_collect = .true.
    verbosity = 'high'    
 /
&system
    ibrav=  0, 
   nat  = 16
    ntyp= 2,
    ecutwfc = 35,
    ecutrho = 200,
    q2sigma = 1
    ecfixed = 34.5
    qcutz = 800
    occupations = 'smearing'
    smearing = 'gaussian',
    degauss  = 0.015
    lda_plus_u = .false.
 /
&electrons
    diagonalization='david'
    mixing_mode = 'local-TF'
    mixing_beta = 0.3
    conv_thr =  1.0d-9
 /
&ions
  ion_dynamics='bfgs',
/
&cell
 cell_dynamics = 'bfgs'
/
ATOMIC_SPECIES
Si   28.0855  si.pbesol.UPF
Ge   72.59  ge.pbesol.UPF
ATOMIC_POSITIONS crystal
Si	0.020585581892082563   -0.0023540903833995943   -0.031185285872485285
Ge	0.13759705725573818   0.11216487432025014   0.11627104810564604
Si	0.0007627433772477598   -0.018371041989852278   0.5090839205149089
Ge	0.11216508740755184   0.1270105153357699   0.615689016923703
Si	-0.02554916910184515   0.49630986024936563   0.01348994438233073
Ge	0.10036122545688217   0.6360946407126666   0.13023808822332075
Si	0.003928996349187764   0.5017588288060675   0.5007477475857484
Si	0.11690130288424198   0.617209879298624   0.6426471680021599
Ge	0.5143830598245888   -0.001588752663521604   0.0005089031159795709
Ge	0.6436675435724108   0.1405368217026201   0.1154861219227849
Ge	0.4950496950085594   0.013867573672250484   0.501039811184033
Si	0.6312337142740353   0.10844727246469552   0.6413748499327798
Si	0.4854474090297168   0.511884603812668   -0.0018169547216069588
Si	0.6193913621405972   0.6280591473258327   0.11925894939935942
Ge	0.5072172732585899   0.4913950199976147   0.5071099309080471
Ge	0.6368571173704147   0.6375748473383481   0.6200567403932907
CELL_PARAMETERS bohr
0.019128231840918136  10.588501072508352  10.544046686422293
10.230372467865553  -0.0395169822206207  10.602691900483832
10.248294321085785  10.665068139790122  -0.05743883544085162
K_POINTS automatic
4 4 4 0 0 0
