&control
  calculation = 'scf'
    restart_mode='from_scratch',
prefix  = 'Si_diamond.scf.in.super.222.replace957'
    tstress = .true.
    tprnfor = .true.
    pseudo_dir = '/users/kfg/psuedo/gbrv_1.5/',
outdir  = '/tmp/Si_diamond.scf.in.super.222.replace7421'
    disk_io = 'low'
    wf_collect = .true.
    verbosity = 'high'    
 /
&system
    ibrav=  0, 
   nat  = 16
    ntyp= 2,
    ecutwfc = 35,
    ecutrho = 200,
    q2sigma = 1
    ecfixed = 34.5
    qcutz = 800
    occupations = 'smearing'
    smearing = 'gaussian',
    degauss  = 0.015
    lda_plus_u = .false.
 /
&electrons
    diagonalization='david'
    mixing_mode = 'local-TF'
    mixing_beta = 0.3
    conv_thr =  1.0d-9
 /
&ions
  ion_dynamics='bfgs',
/
&cell
 cell_dynamics = 'bfgs'
/
ATOMIC_SPECIES
Si   28.0855  si.pbesol.UPF
Ge   72.59  ge.pbesol.UPF
ATOMIC_POSITIONS crystal
Ge	0.0994555428063921   -0.008147514503136938   -0.06057779353505179
Ge	0.07341311082775956   0.13657024551104763   0.15504432788318195
Ge	-0.03993259212802718   -0.020158548786932472   0.5568102576117686
Ge	0.1479320746626336   0.13297518730483046   0.5637136997144812
Ge	-0.03785641086125902   0.4988669017549625   0.04483463674974294
Ge	0.14661802177263455   0.6009490799505609   0.13425270566631303
Ge	-0.02476979165817693   0.5254911477680501   0.5085077371103524
Si	0.08219745090318872   0.6082871113032747   0.6869097917909323
Ge	0.47300920000207997   0.019900027395717345   0.007957060048853774
Ge	0.706752315732503   0.1113659894522382   0.05606514189248883
Ge	0.5497895648299317   0.007617938799825412   0.445779592040833
Si	0.5949703755781461   0.12604671808188952   0.6218125349233363
Ge	0.5186831338023106   0.4959085237430061   -0.00290126505705898
Si	0.5999736409181853   0.6301135283857453   0.1479015744599598
Ge	0.48303777401471465   0.5045562087967218   0.5114155565689192
Si	0.6267265887969831   0.6296574550421994   0.6224744421309473
CELL_PARAMETERS bohr
-0.11230229432065134  10.272790818181072  10.548588970543696
10.398199161245234  -0.016496485535537043  10.452783161758582
10.571721440133405  10.35050728828413  -0.19001876442370855
K_POINTS automatic
4 4 4 0 0 0
