&control
  calculation = 'scf'
    restart_mode='from_scratch',
prefix  = 'Si_diamond.scf.in.super.222.replace1660'
    tstress = .true.
    tprnfor = .true.
    pseudo_dir = '/users/kfg/psuedo/gbrv_1.5/',
outdir  = '/tmp/Si_diamond.scf.in.super.222.replace1223'
    disk_io = 'low'
    wf_collect = .true.
    verbosity = 'high'    
 /
&system
    ibrav=  0, 
   nat  = 16
    ntyp= 2,
    ecutwfc = 35,
    ecutrho = 200,
    q2sigma = 1
    ecfixed = 34.5
    qcutz = 800
    occupations = 'smearing'
    smearing = 'gaussian',
    degauss  = 0.015
    lda_plus_u = .false.
 /
&electrons
    diagonalization='david'
    mixing_mode = 'local-TF'
    mixing_beta = 0.3
    conv_thr =  1.0d-9
 /
&ions
  ion_dynamics='bfgs',
/
&cell
 cell_dynamics = 'bfgs'
/
ATOMIC_SPECIES
Si   28.0855  si.pbesol.UPF
Ge   72.59  ge.pbesol.UPF
ATOMIC_POSITIONS crystal
Si	0.008496556284131825   0.0027199957319295935   -0.020055627793294433
Ge	0.11803686226613193   0.10004910215366145   0.146859526346616
Ge	-0.012081256931475447   -0.011321545423672651   0.5084226290879118
Ge	0.13378284555708836   0.13669553612202073   0.607007716424695
Ge	-0.00034737692549756367   0.48849999177696884   0.008256870894490571
Ge	0.14320920430955855   0.6362440669959928   0.10536545284142229
Ge	0.01648997097823491   0.5158597283875503   0.4723817032530273
Ge	0.11159567502380376   0.6170361747130655   0.6485978866365976
Ge	0.47482111095972646   0.017481301111533485   0.0026235990455084754
Ge	0.6292278624909725   0.13569321898468953   0.11056836753790461
Ge	0.5137137731296363   -0.007709715791323536   0.48433658863190016
Si	0.5956955300057639   0.11948859484664351   0.6432731028601111
Ge	0.5200073837874784   0.49811366323735684   0.001111160947982804
Ge	0.6143753832057213   0.6383674533190025   0.1402905282144983
Ge	0.49681709465836577   0.49381077773953813   0.5146030153573417
Ge	0.6361593812003591   0.6189716560950429   0.6263574797132867
CELL_PARAMETERS bohr
-0.18634247703907508  10.515351017919476  10.617664266193303
10.506518985852226  -0.09968128359052483  10.531003072744754
10.621889447585435  10.544060286204136  -0.2150517453237337
K_POINTS automatic
4 4 4 0 0 0
