&control
  calculation = 'scf'
    restart_mode='from_scratch',
prefix  = 'Si_diamond.scf.in.super.222.replace9429'
    tstress = .true.
    tprnfor = .true.
    pseudo_dir = '/users/kfg/psuedo/gbrv_1.5/',
outdir  = '/tmp/Si_diamond.scf.in.super.222.replace5364'
    disk_io = 'low'
    wf_collect = .true.
    verbosity = 'high'    
 /
&system
    ibrav=  0, 
   nat  = 16
    ntyp= 2,
    ecutwfc = 35,
    ecutrho = 200,
    q2sigma = 1
    ecfixed = 34.5
    qcutz = 800
    occupations = 'smearing'
    smearing = 'gaussian',
    degauss  = 0.015
    lda_plus_u = .false.
 /
&electrons
    diagonalization='david'
    mixing_mode = 'local-TF'
    mixing_beta = 0.3
    conv_thr =  1.0d-9
 /
&ions
  ion_dynamics='bfgs',
/
&cell
 cell_dynamics = 'bfgs'
/
ATOMIC_SPECIES
Si   28.0855  si.pbesol.UPF
Ge   72.59  ge.pbesol.UPF
ATOMIC_POSITIONS crystal
Si	0.007097601993094302   -0.005491706592296496   -0.00286698226985574
Ge	0.1627907304605323   0.10401857760290072   0.12161383767802714
Ge	0.03429742378714702   -0.04867553133242098   0.49919531085961
Si	0.09904288982313766   0.12133363277263745   0.6384499142136993
Si	0.018109371447264155   0.4742798311124895   0.0019196076959342918
Si	0.1207649976338982   0.6123580420994279   0.12190693944792984
Ge	-0.037268140502196796   0.5018378079407574   0.509769061425888
Si	0.12752705518734286   0.5812495485690656   0.6317541842784486
Si	0.5248034307055525   0.029529684303012383   -0.03176586473781039
Ge	0.6310693542835734   0.13555556973428368   0.14199155744733888
Si	0.4503260888090425   0.0412111510403105   0.5253354181907732
Si	0.646751814112285   0.1258734161116614   0.6059104027156518
Ge	0.49969024510683696   0.5120656443353132   0.023431276056110898
Si	0.6408531337605656   0.6646824969505232   0.10049728741789382
Ge	0.5101856782316954   0.5088448674946013   0.4653534859739703
Ge	0.5639583251602288   0.6413269678577331   0.6475045636063901
CELL_PARAMETERS bohr
0.13257357538473366  10.583268094774613  10.44126651565325
10.417074506522445  0.03165451564721309  10.542185575390771
10.344127611090641  10.611240259080331  0.10460141107901647
K_POINTS automatic
4 4 4 0 0 0
