&control
  calculation = 'scf'
    restart_mode='from_scratch',
prefix  = 'Si_diamond.scf.in.super.222.replace3878'
    tstress = .true.
    tprnfor = .true.
    pseudo_dir = '/users/kfg/psuedo/gbrv_1.5/',
outdir  = '/tmp/Si_diamond.scf.in.super.222.replace165'
    disk_io = 'low'
    wf_collect = .true.
    verbosity = 'high'    
 /
&system
    ibrav=  0, 
   nat  = 16
    ntyp= 2,
    ecutwfc = 35,
    ecutrho = 200,
    q2sigma = 1
    ecfixed = 34.5
    qcutz = 800
    occupations = 'smearing'
    smearing = 'gaussian',
    degauss  = 0.015
    lda_plus_u = .false.
 /
&electrons
    diagonalization='david'
    mixing_mode = 'local-TF'
    mixing_beta = 0.3
    conv_thr =  1.0d-9
 /
&ions
  ion_dynamics='bfgs',
/
&cell
 cell_dynamics = 'bfgs'
/
ATOMIC_SPECIES
Si   28.0855  si.pbesol.UPF
Ge   72.59  ge.pbesol.UPF
ATOMIC_POSITIONS crystal
Ge	-0.01597490421763977   0.019262009268542025   -0.012473396462284876
Ge	0.15576205311725458   0.09556893125953253   0.11127304629322601
Ge	0.001575431954556464   0.005871673520752856   0.49015797198913913
Ge	0.1295601888004577   0.1270186921221641   0.6199228160206335
Ge	0.019798277852937852   0.4770623029297784   0.01391346199329224
Ge	0.12447009569913352   0.6217943455054471   0.13771964956630778
Ge	-0.01898485063995457   0.5089820786070524   0.5145112069109218
Si	0.11071030891225231   0.5981587643263823   0.6573818872053768
Ge	0.5286908197804702   -0.012697224262871022   -0.010390833811434541
Ge	0.6081219063134867   0.1494090585824931   0.11257654016586699
Si	0.5010895502241337   0.013463578521501872   0.4836315659954017
Ge	0.6367127020413291   0.12221802684393482   0.6129907410174961
Si	0.49321194807838875   0.5143062409349762   0.009531299427831931
Ge	0.6388230724381581   0.6201455198186268   0.1262259205470854
Ge	0.4794820652510005   0.5092236741150957   0.4989179354448388
Ge	0.6069513343940347   0.6302123279065909   0.6341101876963013
CELL_PARAMETERS bohr
0.035153732248299874  10.860477693093953  10.43561597639443
10.428991592145872  0.05861160883028271  10.412158099812448
10.557961828604874  10.965990052970971  -0.0703586276287195
K_POINTS automatic
4 4 4 0 0 0
