&control
  calculation = 'scf'
    restart_mode='from_scratch',
prefix  = 'Si_diamond.scf.in.super.222.replace4851'
    tstress = .true.
    tprnfor = .true.
    pseudo_dir = '/users/kfg/psuedo/gbrv_1.5/',
outdir  = '/tmp/Si_diamond.scf.in.super.222.replace9661'
    disk_io = 'low'
    wf_collect = .true.
    verbosity = 'high'    
 /
&system
    ibrav=  0, 
   nat  = 16
    ntyp= 2,
    ecutwfc = 35,
    ecutrho = 200,
    q2sigma = 1
    ecfixed = 34.5
    qcutz = 800
    occupations = 'smearing'
    smearing = 'gaussian',
    degauss  = 0.015
    lda_plus_u = .false.
 /
&electrons
    diagonalization='david'
    mixing_mode = 'local-TF'
    mixing_beta = 0.3
    conv_thr =  1.0d-9
 /
&ions
  ion_dynamics='bfgs',
/
&cell
 cell_dynamics = 'bfgs'
/
ATOMIC_SPECIES
Si   28.0855  si.pbesol.UPF
Ge   72.59  ge.pbesol.UPF
ATOMIC_POSITIONS crystal
Ge	0.002607225477379458   0.006819357826082499   -0.014409873946283912
Ge	0.13149690618913124   0.13681544683135652   0.1158123510267919
Si	-0.01002099315735702   0.011382035705775763   0.4869580959348015
Ge	0.126957565864489   0.11903313283267289   0.6185557119438894
Ge	-0.0002822700004594049   0.5205517021844259   -0.01097115907488147
Ge	0.12051004596035238   0.637990363367501   0.14016942871279803
Ge	-0.00505968957617798   0.4926437122941833   0.49833305876234
Ge	0.11240320914998228   0.646094358650352   0.6167814090794631
Ge	0.5020821046762922   -0.0018506818525387682   0.013751725341221842
Si	0.6313057768130365   0.1377717735259358   0.13282898227858128
Ge	0.5089910770626639   -0.02157529443853693   0.48775489335321764
Ge	0.6273020673078692   0.09890673472853012   0.6243678656474746
Ge	0.49796181986114674   0.518758389606174   0.0019190294735000222
Si	0.6282364268472402   0.6111474707763115   0.15174176216160468
Ge	0.4843758859976615   0.4761755552647046   0.5224738710230077
Ge	0.6411328415267499   0.6093359426970696   0.6139328482824736
CELL_PARAMETERS bohr
-0.2550776303134466  10.411735509535207  10.293178263387874
10.505441941549119  -0.2317080840274973  10.269808717101924
10.452763737134218  10.335687758834357  -0.1790298796125964
K_POINTS automatic
4 4 4 0 0 0
