&control
  calculation = 'scf'
    restart_mode='from_scratch',
prefix  = 'Si_diamond.scf.in.super.222.replace3449'
    tstress = .true.
    tprnfor = .true.
    pseudo_dir = '/users/kfg/psuedo/gbrv_1.5/',
outdir  = '/tmp/Si_diamond.scf.in.super.222.replace6812'
    disk_io = 'low'
    wf_collect = .true.
    verbosity = 'high'    
 /
&system
    ibrav=  0, 
   nat  = 16
    ntyp= 2,
    ecutwfc = 35,
    ecutrho = 200,
    q2sigma = 1
    ecfixed = 34.5
    qcutz = 800
    occupations = 'smearing'
    smearing = 'gaussian',
    degauss  = 0.015
    lda_plus_u = .false.
 /
&electrons
    diagonalization='david'
    mixing_mode = 'local-TF'
    mixing_beta = 0.3
    conv_thr =  1.0d-9
 /
&ions
  ion_dynamics='bfgs',
/
&cell
 cell_dynamics = 'bfgs'
/
ATOMIC_SPECIES
Si   28.0855  si.pbesol.UPF
Ge   72.59  ge.pbesol.UPF
ATOMIC_POSITIONS crystal
Si	-0.0076966012992159185   0.018689764630011447   -0.020721818443252552
Ge	0.12196092894806498   0.10202559401217542   0.1512495129987156
Ge	-0.0025779683150735913   -0.00681454821765368   0.5195016948913055
Si	0.14582269231996275   0.13939932619899395   0.607791077629452
Si	0.0005042534917477456   0.4706625358233827   0.03501789865402802
Ge	0.1344818553211047   0.6291805680475918   0.12543125232830754
Si	0.010295699024704274   0.5155072100003336   0.48543428286478485
Si	0.10878882159115903   0.609929111253513   0.6788504505246654
Ge	0.49604300376123844   0.0027572011830710773   -0.014285237354552009
Si	0.6220666202318712   0.13700702405521548   0.09713458707262146
Si	0.5170068917372385   0.001818083613600985   0.45757533511779735
Si	0.6105419194182459   0.14120469534012156   0.6089604150337046
Ge	0.4993638088640976   0.5070477955096176   -0.017864334578037964
Ge	0.6199690882228918   0.608247872347621   0.1331492306281899
Si	0.4810024817753851   0.5003473834050508   0.5382265595232594
Ge	0.6424265049065775   0.6229903827973533   0.6145490931090111
CELL_PARAMETERS bohr
-0.12443064952764012  10.162443188781747  10.518938477329689
10.12125839038272  -0.0080939553821001  10.40260178318415
10.329551787453221  10.254399891706708  -0.21638735245260202
K_POINTS automatic
4 4 4 0 0 0
