&control
  calculation = 'scf'
    restart_mode='from_scratch',
prefix  = 'Si_diamond.scf.in.super.222.replace1107'
    tstress = .true.
    tprnfor = .true.
    pseudo_dir = '/users/kfg/psuedo/gbrv_1.5/',
outdir  = '/tmp/Si_diamond.scf.in.super.222.replace7149'
    disk_io = 'low'
    wf_collect = .true.
    verbosity = 'high'    
 /
&system
    ibrav=  0, 
   nat  = 16
    ntyp= 2,
    ecutwfc = 35,
    ecutrho = 200,
    q2sigma = 1
    ecfixed = 34.5
    qcutz = 800
    occupations = 'smearing'
    smearing = 'gaussian',
    degauss  = 0.015
    lda_plus_u = .false.
 /
&electrons
    diagonalization='david'
    mixing_mode = 'local-TF'
    mixing_beta = 0.3
    conv_thr =  1.0d-9
 /
&ions
  ion_dynamics='bfgs',
/
&cell
 cell_dynamics = 'bfgs'
/
ATOMIC_SPECIES
Si   28.0855  si.pbesol.UPF
Ge   72.59  ge.pbesol.UPF
ATOMIC_POSITIONS crystal
Ge	0.0024325002536673174   -0.01197417477654396   -0.001646240110089643
Ge	0.12832243600144475   0.07788684965861561   0.1630335294592442
Ge	-0.0056977936649149795   -0.002699391079573435   0.5338198565151518
Ge	0.10905576143962228   0.17266919334932185   0.6114342754255115
Si	0.027969588994138837   0.4670415772398375   0.023093313576640427
Si	0.10999269743316212   0.625716149696748   0.12209910753515361
Ge	-0.02136088478128873   0.5423970871164575   0.5101698134169063
Si	0.1516586275156914   0.624618900250656   0.6433842914947483
Ge	0.511535629942601   -0.010409543416029749   0.0003335486360118447
Si	0.6234793553522476   0.13229065086712682   0.11023347478698771
Si	0.495432961180397   0.019837215640789874   0.49378174734918046
Si	0.6198286250461462   0.11942385781530654   0.6310004465004094
Ge	0.493870631362773   0.4971753233202026   -0.014763457793752781
Si	0.6562201596005446   0.6070444629202932   0.09465401836704987
Si	0.5071765925659409   0.49232893293533225   0.4769259803752773
Ge	0.5900831117578266   0.6466529084614592   0.6024462944655696
CELL_PARAMETERS bohr
0.12379525181340044  10.53759937664624  10.597802303237001
10.55847385681141  0.005486879683980053  10.716110675366421
10.29638838230661  10.39382227427086  0.2675723541887805
K_POINTS automatic
4 4 4 0 0 0
