supercell                               
   1.0000000000000000     
     0.0070250503400122    8.2252520689835134    8.1041299932940873
     8.1331222030953754   -0.0304621286752482    8.1416171723093473
     8.1088609717380891    8.2384780166414870   -0.0062008973179621
   Si
    54
Direct
  0.0016104046714958  0.9980098687703034  0.9995759610201205
  0.0863314381453719  0.0830907924229791  0.0812552021208717
  0.0021466330397928  0.0000819054514309  0.3340897026093330
  0.0864330892036804  0.0826204800316930  0.4167719591618066
  0.9982145160705826  0.9985649111524637  0.6675096349771508
  0.0820142675527649  0.0829677519065370  0.7514961438703125
  0.9976850222328153  0.3331330842984173  0.0013748538386764
  0.0836100896667631  0.4165642978425410  0.0822639339326230
  0.0024006360748103  0.3340398539307401  0.3297349363840567
  0.0835565572056609  0.4165906779297757  0.4159848554518817
  0.0010648267380802  0.3342379477917987  0.6641398939984100
  0.0844129408422489  0.4154568826159348  0.7509039737329530
  0.0024597762713725  0.6657959283015131  0.9977484628966735
  0.0867355444360385  0.7486007345652510  0.0822581942533347
  0.0000215829875998  0.6636687282291263  0.3333572504668894
  0.0843796830486667  0.7477429659782757  0.4168747327988314
  0.9985604410911080  0.6657179510359370  0.6702162375875034
  0.0859445668954066  0.7501098596814373  0.7503684692218755
  0.3341893114979015  0.9974662870862332  0.0008531395823965
  0.4182511848060884  0.0814985569209909  0.0842347166805979
  0.3318902365565819  0.0025089734424029  0.3336590483210173
  0.4194298853754219  0.0827144296436515  0.4152348676624342
  0.3315440402475431  0.0003355307015624  0.6681301490249680
  0.4163432252776360  0.0847399844480634  0.7502011426329531
  0.3329922476711857  0.3312523318117755  0.9998128182666761
  0.4167440898506456  0.4188529250168216  0.0820810652414394
  0.3313236298050697  0.3362107242874615  0.3333626213377556
  0.4167807874155045  0.4159790316716681  0.4178215622763943
  0.3317155108600645  0.3333321980370840  0.6686513938599887
  0.4176046914432234  0.4172154710875091  0.7522441450819457
  0.3308421114758744  0.6672762184124323  0.0010792430299702
  0.4159925473292887  0.7516816678111340  0.0819699759223838
  0.3315722340645451  0.6669177939584898  0.3336666879718493
  0.4167040072766000  0.7475840862796943  0.4179031396929744
  0.3358441127651943  0.6669071979090830  0.6636195720783888
  0.4151149955565216  0.7492554630642942  0.7517872808577124
  0.6663354942664625  0.0002229421636670  0.0027239059318944
  0.7502230900480313  0.0822483794534676  0.0828052014985232
  0.6658982232854740  0.9981091764709262  0.3339415985864704
  0.7503043995078400  0.0837464556711609  0.4190311546031609
  0.6671889588533944  0.0000594587588267  0.6663457530963441
  0.7470772146416991  0.0849323956222818  0.7500201434601337
  0.6676275881661553  0.3312200690013185  0.0002726600185667
  0.7465786391984466  0.4179676457775869  0.0845432217918187
  0.6632964685436207  0.3354148676721351  0.3344170137928018
  0.7487821022025685  0.4186007477307001  0.4178760504485268
  0.6668056804354947  0.3358121088302397  0.6649434560114358
  0.7490287645094469  0.4169798420915427  0.7497517097973798
  0.6641478350671974  0.6694534286335738  0.9997573726197970
  0.7469730032920410  0.7498230119459492  0.0852675722567824
  0.6666962395910119  0.6665713860263125  0.3341095830650431
  0.7467964377863012  0.7509356480299374  0.4167377637752026
  0.6621714611215097  0.6680511636125246  0.6680942522889382
  0.7493432090268044  0.7506519872273714  0.7486911108635184

  0.00000000E+00  0.00000000E+00  0.00000000E+00
  0.00000000E+00  0.00000000E+00  0.00000000E+00
  0.00000000E+00  0.00000000E+00  0.00000000E+00
  0.00000000E+00  0.00000000E+00  0.00000000E+00
  0.00000000E+00  0.00000000E+00  0.00000000E+00
  0.00000000E+00  0.00000000E+00  0.00000000E+00
  0.00000000E+00  0.00000000E+00  0.00000000E+00
  0.00000000E+00  0.00000000E+00  0.00000000E+00
  0.00000000E+00  0.00000000E+00  0.00000000E+00
  0.00000000E+00  0.00000000E+00  0.00000000E+00
  0.00000000E+00  0.00000000E+00  0.00000000E+00
  0.00000000E+00  0.00000000E+00  0.00000000E+00
  0.00000000E+00  0.00000000E+00  0.00000000E+00
  0.00000000E+00  0.00000000E+00  0.00000000E+00
  0.00000000E+00  0.00000000E+00  0.00000000E+00
  0.00000000E+00  0.00000000E+00  0.00000000E+00
  0.00000000E+00  0.00000000E+00  0.00000000E+00
  0.00000000E+00  0.00000000E+00  0.00000000E+00
  0.00000000E+00  0.00000000E+00  0.00000000E+00
  0.00000000E+00  0.00000000E+00  0.00000000E+00
  0.00000000E+00  0.00000000E+00  0.00000000E+00
  0.00000000E+00  0.00000000E+00  0.00000000E+00
  0.00000000E+00  0.00000000E+00  0.00000000E+00
  0.00000000E+00  0.00000000E+00  0.00000000E+00
  0.00000000E+00  0.00000000E+00  0.00000000E+00
  0.00000000E+00  0.00000000E+00  0.00000000E+00
  0.00000000E+00  0.00000000E+00  0.00000000E+00
  0.00000000E+00  0.00000000E+00  0.00000000E+00
  0.00000000E+00  0.00000000E+00  0.00000000E+00
  0.00000000E+00  0.00000000E+00  0.00000000E+00
  0.00000000E+00  0.00000000E+00  0.00000000E+00
  0.00000000E+00  0.00000000E+00  0.00000000E+00
  0.00000000E+00  0.00000000E+00  0.00000000E+00
  0.00000000E+00  0.00000000E+00  0.00000000E+00
  0.00000000E+00  0.00000000E+00  0.00000000E+00
  0.00000000E+00  0.00000000E+00  0.00000000E+00
  0.00000000E+00  0.00000000E+00  0.00000000E+00
  0.00000000E+00  0.00000000E+00  0.00000000E+00
  0.00000000E+00  0.00000000E+00  0.00000000E+00
  0.00000000E+00  0.00000000E+00  0.00000000E+00
  0.00000000E+00  0.00000000E+00  0.00000000E+00
  0.00000000E+00  0.00000000E+00  0.00000000E+00
  0.00000000E+00  0.00000000E+00  0.00000000E+00
  0.00000000E+00  0.00000000E+00  0.00000000E+00
  0.00000000E+00  0.00000000E+00  0.00000000E+00
  0.00000000E+00  0.00000000E+00  0.00000000E+00
  0.00000000E+00  0.00000000E+00  0.00000000E+00
  0.00000000E+00  0.00000000E+00  0.00000000E+00
  0.00000000E+00  0.00000000E+00  0.00000000E+00
  0.00000000E+00  0.00000000E+00  0.00000000E+00
  0.00000000E+00  0.00000000E+00  0.00000000E+00
  0.00000000E+00  0.00000000E+00  0.00000000E+00
  0.00000000E+00  0.00000000E+00  0.00000000E+00
  0.00000000E+00  0.00000000E+00  0.00000000E+00
