supercell                               
   1.0000000000000000     
     0.0113475289406369    8.1683807138331925    8.1495042305927861
     8.1080681815417552    0.0207251076267208    8.1401266519067015
     8.1643996078258514    8.2153345614312041   -0.0356063186573747
   Si
    54
Direct
  0.0011921130436079  0.0007380507175014  0.9972483217158867
  0.0831968697729835  0.0812052456757044  0.0863293213138974
  0.0002538673251209  0.0020890511501861  0.3320876060573212
  0.0843917740098235  0.0831621514647409  0.4175455119917046
  0.9966461573232905  0.0009257563933076  0.6683976803597318
  0.0834316617469568  0.0834980128532621  0.7506527539801269
  0.0000308551599275  0.3347497917435902  0.0017862361145120
  0.0849813340979608  0.4156938057334756  0.0831225464201424
  0.9995410539531377  0.3346479992422644  0.3305663933457552
  0.0821502009095738  0.4151260905694087  0.4172580094107303
  0.0006278359617937  0.3300705103650543  0.6667646710270105
  0.0826915236673642  0.4159267311683976  0.7500109446504624
  0.9990424452170146  0.6661799824899148  0.9984089883614899
  0.0860106016710418  0.7496148665773035  0.0811099817908598
  0.0000605586481797  0.6638618483482261  0.3356959007811042
  0.0844969300906513  0.7488649689525317  0.4172419429663421
  0.0001912123356789  0.6696627999347413  0.6666461069666383
  0.0806730495467249  0.7504942642185028  0.7499515967287635
  0.3312392133489794  0.0028537178027790  0.9990068405128625
  0.4147892916492850  0.0823968125975156  0.0874822351563935
  0.3352080869201117  0.9992328151469394  0.3346149570778323
  0.4157402335844367  0.0870302963977991  0.4157624181604831
  0.3322923958603994  0.0006089707814709  0.6649565465675522
  0.4178621351283596  0.0833472888490618  0.7517052152738728
  0.3352619638893160  0.3344893444481514  0.0012767604192589
  0.4187997172146396  0.4135320654748398  0.0837998413358889
  0.3357663119320478  0.3312587542410057  0.3336117536117200
  0.4193277000613875  0.4164144820350870  0.4139919472054530
  0.3349467553266834  0.3332059937644871  0.6665340284294317
  0.4191252947367374  0.4172551839114149  0.7464111184679822
  0.3334453462354361  0.6669984560363602  0.0018758047135421
  0.4175311976890868  0.7467096996729268  0.0839693351969686
  0.3294372675332227  0.6677311884025627  0.3348962218961447
  0.4138062074985811  0.7510940358730451  0.4185181116968479
  0.3320568791389036  0.6666615014243433  0.6678309572452363
  0.4164323273089039  0.7499280990226538  0.7482161917868027
  0.6661481880130111  0.0001322641302366  0.9982388269642897
  0.7511381109406301  0.0847175587028417  0.0827729871511238
  0.6681500686090303  0.9979758943954238  0.3333373764913716
  0.7505807628613184  0.0827518525899009  0.4162431733727416
  0.6670377391295403  0.0025813677522493  0.6645309521075333
  0.7478210156309757  0.0829834965222886  0.7505519824428220
  0.6671761717399747  0.3327881739354055  0.0000515429865402
  0.7498632131753382  0.4178974325836791  0.0810566193282938
  0.6672423336014575  0.3347967763447954  0.3310388834985858
  0.7506266735373828  0.4157762343813332  0.4192276503097503
  0.6645577388168178  0.3335872705750660  0.6695896648915109
  0.7481402044706229  0.4172375698153203  0.7525126478168005
  0.6673262650009875  0.6677553029362713  0.0003982771638960
  0.7508867965274391  0.7488120663053266  0.0824642804678888
  0.6649023558839247  0.6698078317201066  0.3329716287741604
  0.7511258186359555  0.7473563105103125  0.4168814240600653
  0.6675025348084063  0.6687687888191007  0.6635250015287895
  0.7464538166209707  0.7503445397190376  0.7517671901829104

  0.00000000E+00  0.00000000E+00  0.00000000E+00
  0.00000000E+00  0.00000000E+00  0.00000000E+00
  0.00000000E+00  0.00000000E+00  0.00000000E+00
  0.00000000E+00  0.00000000E+00  0.00000000E+00
  0.00000000E+00  0.00000000E+00  0.00000000E+00
  0.00000000E+00  0.00000000E+00  0.00000000E+00
  0.00000000E+00  0.00000000E+00  0.00000000E+00
  0.00000000E+00  0.00000000E+00  0.00000000E+00
  0.00000000E+00  0.00000000E+00  0.00000000E+00
  0.00000000E+00  0.00000000E+00  0.00000000E+00
  0.00000000E+00  0.00000000E+00  0.00000000E+00
  0.00000000E+00  0.00000000E+00  0.00000000E+00
  0.00000000E+00  0.00000000E+00  0.00000000E+00
  0.00000000E+00  0.00000000E+00  0.00000000E+00
  0.00000000E+00  0.00000000E+00  0.00000000E+00
  0.00000000E+00  0.00000000E+00  0.00000000E+00
  0.00000000E+00  0.00000000E+00  0.00000000E+00
  0.00000000E+00  0.00000000E+00  0.00000000E+00
  0.00000000E+00  0.00000000E+00  0.00000000E+00
  0.00000000E+00  0.00000000E+00  0.00000000E+00
  0.00000000E+00  0.00000000E+00  0.00000000E+00
  0.00000000E+00  0.00000000E+00  0.00000000E+00
  0.00000000E+00  0.00000000E+00  0.00000000E+00
  0.00000000E+00  0.00000000E+00  0.00000000E+00
  0.00000000E+00  0.00000000E+00  0.00000000E+00
  0.00000000E+00  0.00000000E+00  0.00000000E+00
  0.00000000E+00  0.00000000E+00  0.00000000E+00
  0.00000000E+00  0.00000000E+00  0.00000000E+00
  0.00000000E+00  0.00000000E+00  0.00000000E+00
  0.00000000E+00  0.00000000E+00  0.00000000E+00
  0.00000000E+00  0.00000000E+00  0.00000000E+00
  0.00000000E+00  0.00000000E+00  0.00000000E+00
  0.00000000E+00  0.00000000E+00  0.00000000E+00
  0.00000000E+00  0.00000000E+00  0.00000000E+00
  0.00000000E+00  0.00000000E+00  0.00000000E+00
  0.00000000E+00  0.00000000E+00  0.00000000E+00
  0.00000000E+00  0.00000000E+00  0.00000000E+00
  0.00000000E+00  0.00000000E+00  0.00000000E+00
  0.00000000E+00  0.00000000E+00  0.00000000E+00
  0.00000000E+00  0.00000000E+00  0.00000000E+00
  0.00000000E+00  0.00000000E+00  0.00000000E+00
  0.00000000E+00  0.00000000E+00  0.00000000E+00
  0.00000000E+00  0.00000000E+00  0.00000000E+00
  0.00000000E+00  0.00000000E+00  0.00000000E+00
  0.00000000E+00  0.00000000E+00  0.00000000E+00
  0.00000000E+00  0.00000000E+00  0.00000000E+00
  0.00000000E+00  0.00000000E+00  0.00000000E+00
  0.00000000E+00  0.00000000E+00  0.00000000E+00
  0.00000000E+00  0.00000000E+00  0.00000000E+00
  0.00000000E+00  0.00000000E+00  0.00000000E+00
  0.00000000E+00  0.00000000E+00  0.00000000E+00
  0.00000000E+00  0.00000000E+00  0.00000000E+00
  0.00000000E+00  0.00000000E+00  0.00000000E+00
  0.00000000E+00  0.00000000E+00  0.00000000E+00
