supercell                               
   1.0000000000000000     
    -0.0132883311786953    8.2247364044403497    8.2146801907471065
     8.1457423635366055    0.0455365232190780    8.1558553363493331
     8.1233730416047738    8.1435422281107464    0.0679058451509088
   Si   Ge
    43    11
Direct
  0.0830184130582055  0.0855679538564971  0.0836981859824562
  0.0010654630313738  0.9997911348489126  0.3342912360194958
  0.0838150302629117  0.0809466860774108  0.4168551646835112
  0.0822004484758381  0.0813471058922062  0.7492727270692967
  0.0845899962394654  0.4163082837447902  0.0810713831287799
  0.9971357269255563  0.3336828733620223  0.3356319036167719
  0.0816455821337385  0.4161136802639405  0.4165383218178249
  0.0005878794504781  0.3352329352675554  0.6660645864431416
  0.0848760439220371  0.4172888221915372  0.7463930127566556
  0.9991592351964087  0.6660531264324518  0.0006400809806948
  0.0812042890909765  0.7505706105608780  0.0857186758582600
  0.0820582880059177  0.7513801554086399  0.4151809296226574
  0.0012732690968917  0.6657566640129957  0.6682346404925781
  0.0818622480126763  0.7492592408053298  0.7517118210915541
  0.3311422869757337  0.0008440927582782  0.3352453547775056
  0.4164084563022286  0.0812042032402545  0.4177194039146102
  0.3333211945878460  0.0003635911696875  0.6657414896638159
  0.4167722048360503  0.0861064658905377  0.7497294152865166
  0.3333066855436897  0.3331611836498851  0.9975046016311282
  0.4170516716775197  0.4177419564084488  0.0831803287222286
  0.3302860684814632  0.3348224738342438  0.3344013580130039
  0.4181047233641735  0.4180729300880088  0.4166717045194943
  0.4170356839236717  0.4177805923828259  0.7482122291433129
  0.4168004930662050  0.7496312822796511  0.0819345155892606
  0.3344016594266463  0.6666156501304172  0.3313232181858439
  0.4155192573300752  0.7491005063086362  0.4193405871303284
  0.3328178731678264  0.6699296298885002  0.6653340056167067
  0.4168602956606406  0.7501752075359605  0.7500400862414480
  0.6661096801964206  0.0011711529815273  0.9990169195085628
  0.7512174826866200  0.0793353133070056  0.0842863973307431
  0.6701574813161315  0.9992315217539556  0.3320952928996661
  0.7495361427994069  0.0825110777839839  0.4192726267244353
  0.7495694160055422  0.0831129479249455  0.7523863589790025
  0.6651084709393515  0.3318070385155849  0.0031516567807159
  0.7479050183189813  0.4158156741269963  0.0832753021066139
  0.6643468430235515  0.3334259505086052  0.3362876956106433
  0.7493518483489225  0.4190559441848052  0.4154467886917104
  0.6649946509045463  0.3317942572588066  0.6687437231697828
  0.7503610221521626  0.4168803073737948  0.7518687758788687
  0.7507864732071212  0.7504069626232095  0.0839918303436136
  0.6671667810387305  0.6636912276601237  0.3331416220545051
  0.6683588462002916  0.6663102699614569  0.6644839353700220
  0.7521243601360155  0.7500850838193500  0.7473174178534379
  0.0004412835582457  0.9997576765274303  0.0025501729837529
  0.0003263048666113  0.0005922652840979  0.6665932389145937
  0.0004246553351024  0.3336687862864949  0.9974976618251787
  0.9990767571239232  0.6652343593416532  0.3360177835113731
  0.3346158276328381  0.9984911133262884  0.9986219657427071
  0.4185457238199035  0.0842904813963301  0.0808239411045335
  0.3321782073260877  0.3357947779611763  0.6660750956096066
  0.3319877104320454  0.6676799938279245  0.0016797022402883
  0.6674734057572564  0.9974774621281099  0.6660235773362473
  0.6645979132761113  0.6695996155879342  0.9991776911339301
  0.7497592803111459  0.7475326070573587  0.4173398483588855

  0.00000000E+00  0.00000000E+00  0.00000000E+00
  0.00000000E+00  0.00000000E+00  0.00000000E+00
  0.00000000E+00  0.00000000E+00  0.00000000E+00
  0.00000000E+00  0.00000000E+00  0.00000000E+00
  0.00000000E+00  0.00000000E+00  0.00000000E+00
  0.00000000E+00  0.00000000E+00  0.00000000E+00
  0.00000000E+00  0.00000000E+00  0.00000000E+00
  0.00000000E+00  0.00000000E+00  0.00000000E+00
  0.00000000E+00  0.00000000E+00  0.00000000E+00
  0.00000000E+00  0.00000000E+00  0.00000000E+00
  0.00000000E+00  0.00000000E+00  0.00000000E+00
  0.00000000E+00  0.00000000E+00  0.00000000E+00
  0.00000000E+00  0.00000000E+00  0.00000000E+00
  0.00000000E+00  0.00000000E+00  0.00000000E+00
  0.00000000E+00  0.00000000E+00  0.00000000E+00
  0.00000000E+00  0.00000000E+00  0.00000000E+00
  0.00000000E+00  0.00000000E+00  0.00000000E+00
  0.00000000E+00  0.00000000E+00  0.00000000E+00
  0.00000000E+00  0.00000000E+00  0.00000000E+00
  0.00000000E+00  0.00000000E+00  0.00000000E+00
  0.00000000E+00  0.00000000E+00  0.00000000E+00
  0.00000000E+00  0.00000000E+00  0.00000000E+00
  0.00000000E+00  0.00000000E+00  0.00000000E+00
  0.00000000E+00  0.00000000E+00  0.00000000E+00
  0.00000000E+00  0.00000000E+00  0.00000000E+00
  0.00000000E+00  0.00000000E+00  0.00000000E+00
  0.00000000E+00  0.00000000E+00  0.00000000E+00
  0.00000000E+00  0.00000000E+00  0.00000000E+00
  0.00000000E+00  0.00000000E+00  0.00000000E+00
  0.00000000E+00  0.00000000E+00  0.00000000E+00
  0.00000000E+00  0.00000000E+00  0.00000000E+00
  0.00000000E+00  0.00000000E+00  0.00000000E+00
  0.00000000E+00  0.00000000E+00  0.00000000E+00
  0.00000000E+00  0.00000000E+00  0.00000000E+00
  0.00000000E+00  0.00000000E+00  0.00000000E+00
  0.00000000E+00  0.00000000E+00  0.00000000E+00
  0.00000000E+00  0.00000000E+00  0.00000000E+00
  0.00000000E+00  0.00000000E+00  0.00000000E+00
  0.00000000E+00  0.00000000E+00  0.00000000E+00
  0.00000000E+00  0.00000000E+00  0.00000000E+00
  0.00000000E+00  0.00000000E+00  0.00000000E+00
  0.00000000E+00  0.00000000E+00  0.00000000E+00
  0.00000000E+00  0.00000000E+00  0.00000000E+00
  0.00000000E+00  0.00000000E+00  0.00000000E+00
  0.00000000E+00  0.00000000E+00  0.00000000E+00
  0.00000000E+00  0.00000000E+00  0.00000000E+00
  0.00000000E+00  0.00000000E+00  0.00000000E+00
  0.00000000E+00  0.00000000E+00  0.00000000E+00
  0.00000000E+00  0.00000000E+00  0.00000000E+00
  0.00000000E+00  0.00000000E+00  0.00000000E+00
  0.00000000E+00  0.00000000E+00  0.00000000E+00
  0.00000000E+00  0.00000000E+00  0.00000000E+00
  0.00000000E+00  0.00000000E+00  0.00000000E+00
  0.00000000E+00  0.00000000E+00  0.00000000E+00
