
ISMEAR = 0; SIGMA = 0.05;
LSORBIT       = .FALSE.

EDIFF = 1e-7

PREC = Accurate
ENCUT = 300

IBRION = 1

ISIF = 2

