&control
  calculation = 'scf'
    restart_mode='from_scratch',
prefix  = 'Si_diamond.scf.in.super.222.replace5957'
    tstress = .true.
    tprnfor = .true.
    pseudo_dir = '/users/kfg/psuedo/gbrv_1.5/',
outdir  = '/tmp/Si_diamond.scf.in.super.222.replace4397'
    disk_io = 'low'
    wf_collect = .true.
    verbosity = 'high'    
 /
&system
    ibrav=  0, 
   nat  = 16
    ntyp= 1,
    ecutwfc = 35,
    ecutrho = 200,
    q2sigma = 1
    ecfixed = 34.5
    qcutz = 800
    occupations = 'smearing'
    smearing = 'gaussian',
    degauss  = 0.015
    lda_plus_u = .false.
 /
&electrons
    diagonalization='david'
    mixing_mode = 'local-TF'
    mixing_beta = 0.3
    conv_thr =  1.0d-9
 /
&ions
  ion_dynamics='bfgs',
/
&cell
 cell_dynamics = 'bfgs'
/
ATOMIC_SPECIES
Si   28.0855  si.pbesol.UPF
ATOMIC_POSITIONS crystal
Si	0.02220371878660654   -0.014812144099228305   -0.010347987532859993
Si	0.1413551132485819   0.18533820676729573   0.02962774817930773
Si	-0.025267399402781   0.03054714961407058   0.4467598644744378
Si	0.13990592548263958   0.09443477254431366   0.6001778543661872
Si	-0.031894451362386174   0.5649902305323948   -0.03733190822799951
Si	0.13975846852713875   0.5986177863745616   0.1283072636393676
Si	0.016786698142240056   0.4769111175502027   0.49298764392590916
Si	0.12411513806405974   0.6648864344614064   0.6012663855110068
Si	0.46207365306407705   -0.032038091188330384   0.09683602004570685
Si	0.6199671728872224   0.13714864052044212   0.13221315284003032
Si	0.505291768938278   -0.003254269121804276   0.5073734487793587
Si	0.6272497280081446   0.08774100575034738   0.7063254903426223
Si	0.5072428119913657   0.5173891989743215   -0.028079024669661747
Si	0.6067427693852705   0.5876978029805013   0.17686659182276943
Si	0.49448704716829545   0.46936799050634076   0.5446431639306204
Si	0.649981837071247   0.6350341678331644   0.6123742925731971
CELL_PARAMETERS bohr
-2.636660329639161e-16  10.264083424  10.264083424
10.264083424  -1.8438084260700684e-34  10.264083424
10.264083424  10.264083424  2.636660329639161e-16
K_POINTS automatic
4 4 4 0 0 0
