&control
  calculation = 'scf'
    restart_mode='from_scratch',
prefix  = 'Si_diamond.scf.in.super.222.replace5596'
    tstress = .true.
    tprnfor = .true.
    pseudo_dir = '/users/kfg/psuedo/gbrv_1.5/',
outdir  = '/tmp/Si_diamond.scf.in.super.222.replace6647'
    disk_io = 'low'
    wf_collect = .true.
    verbosity = 'high'    
 /
&system
    ibrav=  0, 
   nat  = 16
    ntyp= 1,
    ecutwfc = 35,
    ecutrho = 200,
    q2sigma = 1
    ecfixed = 34.5
    qcutz = 800
    occupations = 'smearing'
    smearing = 'gaussian',
    degauss  = 0.015
    lda_plus_u = .false.
 /
&electrons
    diagonalization='david'
    mixing_mode = 'local-TF'
    mixing_beta = 0.3
    conv_thr =  1.0d-9
 /
&ions
  ion_dynamics='bfgs',
/
&cell
 cell_dynamics = 'bfgs'
/
ATOMIC_SPECIES
Si   28.0855  si.pbesol.UPF
ATOMIC_POSITIONS crystal
Si	0.02286798969235827   0.00322203370481206   0.009309558286274432
Si	0.1122894449233076   0.1357394697308244   0.1615572896828168
Si	-0.01989106062849318   0.01735451504362581   0.5340642208750156
Si	0.1332986772288546   0.1283956936244928   0.636012887849445
Si	-0.017395227291127   0.4876760850540263   0.003936598455266613
Si	0.16287236095168567   0.5995639999576842   0.0720468973160987
Si	0.03256938374910934   0.5181005720013118   0.43432281392240957
Si	0.07896824210228988   0.6486848969002643   0.624379432587851
Si	0.50280015421724   -0.010712486959009905   0.018573435831383742
Si	0.65497289645827   0.10348697839721047   0.11856421257862869
Si	0.508546350774211   0.0007637555803508034   0.5012010486619877
Si	0.5968868639211   0.14814814635513773   0.6348786825356308
Si	0.536110815745451   0.47348192673999195   -0.029715295201068286
Si	0.587530247690788   0.6094664380326246   0.1564747302405499
Si	0.456932459610064   0.520590112845017   0.5205079945229553
Si	0.6506404008548519   0.616037862991636   0.6038854918547543
CELL_PARAMETERS bohr
-2.636660329639161e-16  10.264083424  10.264083424
10.264083424  -1.8438084260700684e-34  10.264083424
10.264083424  10.264083424  2.636660329639161e-16
K_POINTS automatic
4 4 4 0 0 0
