&control
  calculation = 'scf'
    restart_mode='from_scratch',
prefix  = 'Si_diamond.scf.in.super.222.replace6098'
    tstress = .true.
    tprnfor = .true.
    pseudo_dir = '/users/kfg/psuedo/gbrv_1.5/',
outdir  = '/tmp/Si_diamond.scf.in.super.222.replace5123'
    disk_io = 'low'
    wf_collect = .true.
    verbosity = 'high'    
 /
&system
    ibrav=  0, 
   nat  = 16
    ntyp= 1,
    ecutwfc = 35,
    ecutrho = 200,
    q2sigma = 1
    ecfixed = 34.5
    qcutz = 800
    occupations = 'smearing'
    smearing = 'gaussian',
    degauss  = 0.015
    lda_plus_u = .false.
 /
&electrons
    diagonalization='david'
    mixing_mode = 'local-TF'
    mixing_beta = 0.3
    conv_thr =  1.0d-9
 /
&ions
  ion_dynamics='bfgs',
/
&cell
 cell_dynamics = 'bfgs'
/
ATOMIC_SPECIES
Si   28.0855  si.pbesol.UPF
ATOMIC_POSITIONS crystal
Si	-0.028336212035028067   0.027188760540897434   -0.01746499621717066
Si	0.1346697868271545   0.13257503633605647   0.09531996964483855
Si	0.030196180376600018   -0.004851678440542005   0.4731534645096302
Si	0.1277324580450299   0.13904337087824017   0.6142323439977253
Si	-0.02329437421326797   0.5085239169078267   -0.00409779135706421
Si	0.102328369481724   0.6476071743064697   0.12298018239277603
Si	0.001963689577960587   0.5135823386014711   0.4950449497454561
Si	0.1460371248614247   0.6195152763306626   0.6518345298577392
Si	0.5006824561058756   -0.01417581739183256   0.0016997674063090906
Si	0.607591836087908   0.10888275207358993   0.15186498046131847
Si	0.51323037878209   -0.027878853242110695   0.5350721330266952
Si	0.651321628256185   0.1127576789012964   0.6245288171801041
Si	0.48444449814033047   0.5076997196763241   0.001116490261961714
Si	0.60852924001359   0.6259488371110355   0.10757155775960564
Si	0.5133982368665736   0.48704951808558145   0.4995875167521489
Si	0.6295047028258437   0.6165319693250336   0.6475560845779262
CELL_PARAMETERS bohr
-2.636660329639161e-16  10.264083424  10.264083424
10.264083424  -1.8438084260700684e-34  10.264083424
10.264083424  10.264083424  2.636660329639161e-16
K_POINTS automatic
4 4 4 0 0 0
