&control
  calculation = 'scf'
    restart_mode='from_scratch',
prefix  = 'Si_diamond.scf.in.super.222.replace3143'
    tstress = .true.
    tprnfor = .true.
    pseudo_dir = '/users/kfg/psuedo/gbrv_1.5/',
outdir  = '/tmp/Si_diamond.scf.in.super.222.replace7712'
    disk_io = 'low'
    wf_collect = .true.
    verbosity = 'high'    
 /
&system
    ibrav=  0, 
   nat  = 16
    ntyp= 1,
    ecutwfc = 35,
    ecutrho = 200,
    q2sigma = 1
    ecfixed = 34.5
    qcutz = 800
    occupations = 'smearing'
    smearing = 'gaussian',
    degauss  = 0.015
    lda_plus_u = .false.
 /
&electrons
    diagonalization='david'
    mixing_mode = 'local-TF'
    mixing_beta = 0.3
    conv_thr =  1.0d-9
 /
&ions
  ion_dynamics='bfgs',
/
&cell
 cell_dynamics = 'bfgs'
/
ATOMIC_SPECIES
Si   28.0855  si.pbesol.UPF
ATOMIC_POSITIONS crystal
Si	-0.007784436593993134   0.008240244603294773   -0.024221374374377103
Si	0.12805160042052754   0.10951302691886204   0.12230883160919429
Si	-0.0076487325406568996   0.008608717539834557   0.4942741014672151
Si	0.1123051749338698   0.152541246746691   0.6016145191896508
Si	-0.00015055717785428268   0.4848236104215997   0.005997230979056441
Si	0.12223524824649808   0.6228974750908143   0.11223765469380295
Si	-0.002148857287609458   0.5234055277893385   0.503582443637664
Si	0.17107958732313605   0.6077745030487398   0.617392477893375
Si	0.5027155241580767   0.0070144080251750415   0.03548599042904512
Si	0.611411418362988   0.15622222141645725   0.1398128089441747
Si	0.4898367570513554   -0.014562700199137774   0.5188464801461479
Si	0.6300105777402654   0.09494528267311882   0.6641582624404626
Si	0.4721994057950919   0.5162866236024927   0.0031211296474205224
Si	0.6169546137594435   0.6536336066848845   0.10068407042882638
Si	0.535536821114688   0.46550202270954555   0.4776032048381385
Si	0.62539585469417   0.6031541829282893   0.6271021680302027
CELL_PARAMETERS bohr
-2.636660329639161e-16  10.264083424  10.264083424
10.264083424  -1.8438084260700684e-34  10.264083424
10.264083424  10.264083424  2.636660329639161e-16
K_POINTS automatic
4 4 4 0 0 0
