&control
  calculation = 'scf'
    restart_mode='from_scratch',
prefix  = 'Si_diamond.scf.in.super.222.replace8147'
    tstress = .true.
    tprnfor = .true.
    pseudo_dir = '/users/kfg/psuedo/gbrv_1.5/',
outdir  = '/tmp/Si_diamond.scf.in.super.222.replace6313'
    disk_io = 'low'
    wf_collect = .true.
    verbosity = 'high'    
 /
&system
    ibrav=  0, 
   nat  = 16
    ntyp= 1,
    ecutwfc = 35,
    ecutrho = 200,
    q2sigma = 1
    ecfixed = 34.5
    qcutz = 800
    occupations = 'smearing'
    smearing = 'gaussian',
    degauss  = 0.015
    lda_plus_u = .false.
 /
&electrons
    diagonalization='david'
    mixing_mode = 'local-TF'
    mixing_beta = 0.3
    conv_thr =  1.0d-9
 /
&ions
  ion_dynamics='bfgs',
/
&cell
 cell_dynamics = 'bfgs'
/
ATOMIC_SPECIES
Si   28.0855  si.pbesol.UPF
ATOMIC_POSITIONS crystal
Si	-0.022689897589060922   0.007203815345194135   -0.02352995101699333
Si	0.14097904801479066   0.15976007379852217   0.035410561111426195
Si	0.02082471719610012   -0.0001875792975389488   0.4393174528100252
Si	0.125339208636866   0.1102552110416151   0.5994633261349195
Si	-0.001088588180268742   0.48738169924150904   0.06808516952510876
Si	0.1395128277509951   0.6443540624869036   0.15177260496927372
Si	0.005629200209208165   0.48289661661841976   0.5239586670621811
Si	0.09901865437380687   0.6252844654199903   0.6671504197573921
Si	0.5078406366047805   -0.0025180037188604412   -0.02157347656333656
Si	0.5982052698516263   0.12776031489902784   0.13275905953394157
Si	0.4994939089051631   -0.008102916310711084   0.5077578804414282
Si	0.6455678267653174   0.1253501961571692   0.6016961792575656
Si	0.5135914426032859   0.5021068324173238   0.00857430268119415
Si	0.62326780997001   0.6248567261412578   0.15078171055830666
Si	0.47655261662900444   0.4974769047865864   0.5258846596158612
Si	0.6279553182583751   0.6161215809735914   0.6324914341217062
CELL_PARAMETERS bohr
-2.636660329639161e-16  10.264083424  10.264083424
10.264083424  -1.8438084260700684e-34  10.264083424
10.264083424  10.264083424  2.636660329639161e-16
K_POINTS automatic
4 4 4 0 0 0
