&control
  calculation = 'scf'
    restart_mode='from_scratch',
prefix  = 'Si_diamond.scf.in.super.222.replace2816'
    tstress = .true.
    tprnfor = .true.
    pseudo_dir = '/users/kfg/psuedo/gbrv_1.5/',
outdir  = '/tmp/Si_diamond.scf.in.super.222.replace9375'
    disk_io = 'low'
    wf_collect = .true.
    verbosity = 'high'    
 /
&system
    ibrav=  0, 
   nat  = 16
    ntyp= 1,
    ecutwfc = 35,
    ecutrho = 200,
    q2sigma = 1
    ecfixed = 34.5
    qcutz = 800
    occupations = 'smearing'
    smearing = 'gaussian',
    degauss  = 0.015
    lda_plus_u = .false.
 /
&electrons
    diagonalization='david'
    mixing_mode = 'local-TF'
    mixing_beta = 0.3
    conv_thr =  1.0d-9
 /
&ions
  ion_dynamics='bfgs',
/
&cell
 cell_dynamics = 'bfgs'
/
ATOMIC_SPECIES
Si   28.0855  si.pbesol.UPF
ATOMIC_POSITIONS crystal
Si	0.00068699324104650   0.0064803348112127184   0.0009935475856407358
Si	0.11216943138979454   0.12832860084170875   0.135224311598303
Si	0.003988570635095707   0.0006832826809314965   0.5242352442816048
Si	0.158555861804388   0.11135053691642223   0.6326053705046359
Si	0.0100934314318101   0.5073764350461165   -0.01967936970602923
Si	0.1150874929248652   0.6274511373088919   0.11979372732465844
Si	-0.028024277249322726   0.49359912467192696   0.5114099882471932
Si	0.1241332530862386   0.6367754599639398   0.6111413604733271
Si	0.4905700331072959   -0.00995134148530954   0.013665760045438116
Si	0.6172321231511624   0.13498404658414717   0.11902851260006689
Si	0.54249176256311   -0.003988488376701202   0.5023623400359521
Si	0.6460448091364706   0.12180385110331912   0.6339032971666079
Si	0.4841032834607334   0.4977357513688433   -0.0036879138132694
Si	0.6258947214181657   0.6253648452387487   0.10438263818685142
Si	0.493159531594578   0.5000422537185729   0.48175909395027516
Si	0.6038129783045656   0.6219641696072291   0.6328620915187438
CELL_PARAMETERS bohr
-2.636660329639161e-16  10.264083424  10.264083424
10.264083424  -1.8438084260700684e-34  10.264083424
10.264083424  10.264083424  2.636660329639161e-16
K_POINTS automatic
4 4 4 0 0 0
