&control
  calculation = 'scf'
    restart_mode='from_scratch',
prefix  = 'Si_diamond.scf.in.super.222.replace7321'
    tstress = .true.
    tprnfor = .true.
    pseudo_dir = '/users/kfg/psuedo/gbrv_1.5/',
outdir  = '/tmp/Si_diamond.scf.in.super.222.replace62'
    disk_io = 'low'
    wf_collect = .true.
    verbosity = 'high'    
 /
&system
    ibrav=  0, 
   nat  = 16
    ntyp= 1,
    ecutwfc = 35,
    ecutrho = 200,
    q2sigma = 1
    ecfixed = 34.5
    qcutz = 800
    occupations = 'smearing'
    smearing = 'gaussian',
    degauss  = 0.015
    lda_plus_u = .false.
 /
&electrons
    diagonalization='david'
    mixing_mode = 'local-TF'
    mixing_beta = 0.3
    conv_thr =  1.0d-9
 /
&ions
  ion_dynamics='bfgs',
/
&cell
 cell_dynamics = 'bfgs'
/
ATOMIC_SPECIES
Si   28.0855  si.pbesol.UPF
ATOMIC_POSITIONS crystal
Si	0.00310194926502929   0.020200628024150593   -0.01149921755995882
Si	0.12921315074451808   0.12984367029290944   0.128312127279722
Si	0.01454114325321308   -0.01966465398265941   0.4905024473065608
Si	0.1333922264475510   0.12998157482941525   0.5923244916272967
Si	-0.02034464116119605   0.5128934089762083   -0.009838011787702288
Si	0.1237008188449348   0.6396037205967019   0.10542282744787035
Si	-0.0032441378834330466   0.4892811959837656   0.5026553247264883
Si	0.13574700895406544   0.6009616249477335   0.6329812952774162
Si	0.4946444103032626   0.005675224088704364   0.01801556700985852
Si	0.6351663678442728   0.12101361237707331   0.13634956947333698
Si	0.49469706703043437   0.009595909689350639   0.5133359564107619
Si	0.62972126373799   0.11985923188416685   0.6456073617858659
Si	0.5109855399100947   0.4970668777304633   -0.010964514036352565
Si	0.5939388441027885   0.6334309588089599   0.13578454986336727
Si	0.502618759226499   0.481612902289486   0.5092062940962366
Si	0.62212022937997   0.6286441134635703   0.621803931079232
CELL_PARAMETERS bohr
-2.636660329639161e-16  10.264083424  10.264083424
10.264083424  -1.8438084260700684e-34  10.264083424
10.264083424  10.264083424  2.636660329639161e-16
K_POINTS automatic
4 4 4 0 0 0
