&control
  calculation = 'scf'
    restart_mode='from_scratch',
prefix  = 'Si_diamond.scf.in.super.222.replace1849'
    tstress = .true.
    tprnfor = .true.
    pseudo_dir = '/users/kfg/psuedo/gbrv_1.5/',
outdir  = '/tmp/Si_diamond.scf.in.super.222.replace3657'
    disk_io = 'low'
    wf_collect = .true.
    verbosity = 'high'    
 /
&system
    ibrav=  0, 
   nat  = 16
    ntyp= 1,
    ecutwfc = 35,
    ecutrho = 200,
    q2sigma = 1
    ecfixed = 34.5
    qcutz = 800
    occupations = 'smearing'
    smearing = 'gaussian',
    degauss  = 0.015
    lda_plus_u = .false.
 /
&electrons
    diagonalization='david'
    mixing_mode = 'local-TF'
    mixing_beta = 0.3
    conv_thr =  1.0d-9
 /
&ions
  ion_dynamics='bfgs',
/
&cell
 cell_dynamics = 'bfgs'
/
ATOMIC_SPECIES
Si   28.0855  si.pbesol.UPF
ATOMIC_POSITIONS crystal
Si	-0.0030054714212193155   -0.03646507919265623   0.0036600481340173484
Si	0.09212495129028489   0.1172018839411968   0.13034240777247483
Si	-0.0029177090391189825   0.02016803858756448   0.4989748321631025
Si	0.14036685910770355   0.11627779221704672   0.6278311510558303
Si	-0.0034794050904654135   0.4814065368467511   0.004462420454334397
Si	0.13658273820499744   0.5960033893130228   0.1139020226014758
Si	0.008018043091692104   0.5187823117727315   0.4955607829211392
Si	0.12423836438266064   0.6250014639839889   0.6362401336241514
Si	0.4705079503569687   0.0057539222358693725   0.006930819511816304
Si	0.632902626697786   0.11655850979968513   0.10246690200634298
Si	0.51018348362859   0.03628105926586813   0.48835423897468794
Si	0.6166397257293457   0.14274458433070206   0.6405532901925588
Si	0.507517605702358   0.49312724822991927   -0.004970548771849203
Si	0.62499693657551   0.6065883925097244   0.1393017905336699
Si	0.506424747155337   0.5164474893460179   0.49379817817573357
Si	0.638898553627565   0.6441224568125676   0.6225915306505139
CELL_PARAMETERS bohr
-2.636660329639161e-16  10.264083424  10.264083424
10.264083424  -1.8438084260700684e-34  10.264083424
10.264083424  10.264083424  2.636660329639161e-16
K_POINTS automatic
4 4 4 0 0 0
