&control
  calculation = 'scf'
    restart_mode='from_scratch',
prefix  = 'Si_diamond.scf.in.super.222.replace9826'
    tstress = .true.
    tprnfor = .true.
    pseudo_dir = '/users/kfg/psuedo/gbrv_1.5/',
outdir  = '/tmp/Si_diamond.scf.in.super.222.replace353'
    disk_io = 'low'
    wf_collect = .true.
    verbosity = 'high'    
 /
&system
    ibrav=  0, 
   nat  = 16
    ntyp= 1,
    ecutwfc = 35,
    ecutrho = 200,
    q2sigma = 1
    ecfixed = 34.5
    qcutz = 800
    occupations = 'smearing'
    smearing = 'gaussian',
    degauss  = 0.015
    lda_plus_u = .false.
 /
&electrons
    diagonalization='david'
    mixing_mode = 'local-TF'
    mixing_beta = 0.3
    conv_thr =  1.0d-9
 /
&ions
  ion_dynamics='bfgs',
/
&cell
 cell_dynamics = 'bfgs'
/
ATOMIC_SPECIES
Si   28.0855  si.pbesol.UPF
ATOMIC_POSITIONS crystal
Si	-0.0302284261984285   0.011100447092551617   0.00020454685446826289
Si	0.13968172208519   0.09804406968094856   0.12255599827230498
Si	0.01679794138523376   -0.0009149102560616706   0.49707416255194403
Si	0.11005077156696226   0.14721280096499814   0.6212871451666937
Si	0.0322418305428817   0.4671061354747967   -0.02146285577134353
Si	0.11622752885499829   0.6379318551726497   0.10389267685050708
Si	-0.004170304408353044   0.5164387077580525   0.4855570402499776
Si	0.12930655126527074   0.6336276443902378   0.6156648163881666
Si	0.5239690576875069   -0.010012111354883923   -0.022532725770972418
Si	0.6033079816748149   0.1360659580506635   0.12390177628729802
Si	0.47903452223813275   0.005634369094467875   0.5034631116944513
Si	0.6399140219333349   0.11586335338904395   0.627511929566576
Si	0.4771367914381689   0.5087501193706513   0.0239505061711386
Si	0.6428438378838259   0.6103299609005464   0.1467637521957575
Si	0.49971552530029095   0.49385174364830625   0.5356114769614442
Si	0.624170646750167   0.6289698566230315   0.6365566423315882
CELL_PARAMETERS bohr
-2.636660329639161e-16  10.264083424  10.264083424
10.264083424  -1.8438084260700684e-34  10.264083424
10.264083424  10.264083424  2.636660329639161e-16
K_POINTS automatic
4 4 4 0 0 0
