&control
  calculation = 'scf'
    restart_mode='from_scratch',
prefix = 'PREFIX'
    tstress = .true.
    tprnfor = .true.
    pseudo_dir = '/users/kfg/psuedo/gbrv_1.5/',
  outdir = '/tmp/DIR'
    disk_io = 'low'
    wf_collect = .true.
    verbosity = 'high'    
 /
&system
    ibrav=  0, 
   nat  = 16
    ntyp= 1,
    ecutwfc = 35,
    ecutrho = 200,
    q2sigma = 1
    ecfixed = 34.5
    qcutz = 800
    occupations = 'smearing'
    smearing = 'gaussian',
    degauss  = 0.015
    lda_plus_u = .false.
 /
&electrons
    diagonalization='david'
    mixing_mode = 'local-TF'
    mixing_beta = 0.3
    conv_thr =  1.0d-9
 /
&ions
  ion_dynamics='bfgs',
/
&cell
 cell_dynamics = 'bfgs'
/
ATOMIC_SPECIES
Si   28.0855  si.pbesol.UPF
ATOMIC_POSITIONS crystal
Si  0.0 0.0 0.0
Si  0.125 0.125 0.125
Si  0.0 0.0 0.5
Si  0.125 0.125 0.625
Si  0.0 0.5 0.0
Si  0.125 0.625 0.125
Si  0.0 0.5 0.5
Si  0.125 0.625 0.625
Si  0.5 0.0 0.0
Si  0.625 0.125 0.125
Si  0.5 0.0 0.5
Si  0.625 0.125 0.625
Si  0.5 0.5 0.0
Si  0.625 0.625 0.125
Si  0.5 0.5 0.5
Si  0.625 0.625 0.625
CELL_PARAMETERS
-0.0 10.264083424 10.264083424
10.264083424 -0.0 10.264083424
10.264083424 10.264083424 -0.0
K_POINTS automatic
4 4 4 0 0 0
