&control
  calculation = 'scf'
    restart_mode='from_scratch',
prefix  = 'Si_diamond.scf.in.super.222.replace5989'
    tstress = .true.
    tprnfor = .true.
    pseudo_dir = '/users/kfg/psuedo/gbrv_1.5/',
outdir  = '/tmp/Si_diamond.scf.in.super.222.replace2774'
    disk_io = 'low'
    wf_collect = .true.
    verbosity = 'high'    
 /
&system
    ibrav=  0, 
   nat  = 16
    ntyp= 1,
    ecutwfc = 35,
    ecutrho = 200,
    q2sigma = 1
    ecfixed = 34.5
    qcutz = 800
    occupations = 'smearing'
    smearing = 'gaussian',
    degauss  = 0.015
    lda_plus_u = .false.
 /
&electrons
    diagonalization='david'
    mixing_mode = 'local-TF'
    mixing_beta = 0.3
    conv_thr =  1.0d-9
 /
&ions
  ion_dynamics='bfgs',
/
&cell
 cell_dynamics = 'bfgs'
/
ATOMIC_SPECIES
Si   28.0855  si.pbesol.UPF
ATOMIC_POSITIONS crystal
Si	0.02186448314669264   -0.021419344040324306   -0.0025117203106641475
Si	0.06011625967636554   0.20152474104197055   0.17060596265601033
Si	-0.03688012431665552   -0.04069289182408386   0.5757195714459282
Si	0.12249603788736703   0.1272316379449123   0.6274988708758851
Si	0.04544959137644898   0.4456593293361759   -0.13725364698774006
Si	0.12593908537030768   0.6016217423824647   0.0709196282054058
Si	0.036413574114160206   0.49203425934460987   0.44845221486593106
Si	0.1612816320638918   0.646583089380565   0.5254815482025305
Si	0.4476326491549865   0.07203208029190576   0.07630580119579113
Si	0.6402595318483764   0.13100812350623192   0.18440211602315723
Si	0.5090776109701771   -0.019594617156957327   0.5484627297886888
Si	0.5898051420045258   0.10517803096530727   0.7058299328754288
Si	0.4826679989763037   0.5259483882008598   0.01099717839397452
Si	0.5882490128832634   0.674070821279305   0.11060895487631793
Si	0.5646218331661281   0.45208664282117816   0.4822377179341486
Si	0.6410056816776607   0.6067279665258795   0.6022431399592063
CELL_PARAMETERS bohr
-2.636660329639161e-16  10.264083424  10.264083424
10.264083424  -1.8438084260700684e-34  10.264083424
10.264083424  10.264083424  2.636660329639161e-16
K_POINTS automatic
4 4 4 0 0 0
