&control
  calculation = 'scf'
    restart_mode='from_scratch',
prefix  = 'Si_diamond.scf.in.super.222.replace2900'
    tstress = .true.
    tprnfor = .true.
    pseudo_dir = '/users/kfg/psuedo/gbrv_1.5/',
outdir  = '/tmp/Si_diamond.scf.in.super.222.replace1707'
    disk_io = 'low'
    wf_collect = .true.
    verbosity = 'high'    
 /
&system
    ibrav=  0, 
   nat  = 16
    ntyp= 1,
    ecutwfc = 35,
    ecutrho = 200,
    q2sigma = 1
    ecfixed = 34.5
    qcutz = 800
    occupations = 'smearing'
    smearing = 'gaussian',
    degauss  = 0.015
    lda_plus_u = .false.
 /
&electrons
    diagonalization='david'
    mixing_mode = 'local-TF'
    mixing_beta = 0.3
    conv_thr =  1.0d-9
 /
&ions
  ion_dynamics='bfgs',
/
&cell
 cell_dynamics = 'bfgs'
/
ATOMIC_SPECIES
Si   28.0855  si.pbesol.UPF
ATOMIC_POSITIONS crystal
Si	0.012467731838016437   -0.0028069755876678724   0.0029280871661135563
Si	0.14343383366250073   0.10571171086392367   0.1360915982231804
Si	-0.023272713508527176   0.0013708175093667604   0.5011469781378527
Si	0.08336790226027174   0.12867243399736192   0.6408596232228538
Si	-0.0034222777954449274   0.4904957663239939   0.03129166165406451
Si	0.15539140523268985   0.5931141103487861   0.1208449331725686
Si	0.03306089259728142   0.4794357124870877   0.48148360140964547
Si	0.08836150408310639   0.6129185037857076   0.6543465283348819
Si	0.5242556715439741   0.01950141828058293   -0.02621405975016316
Si	0.621072223342212   0.15180352243817974   0.13028518917563703
Si	0.4749765248030613   -0.016066749681917486   0.4998187730985686
Si	0.6033783817447441   0.1347052096932008   0.6099485029337538
Si	0.5225162566400248   0.5256806501908678   -0.02195254844767683
Si	0.6291129593468278   0.6522028939591127   0.13280180773921196
Si	0.4675189021329538   0.5078074371470264   0.518368458342591
Si	0.6677808020763079   0.6154535382443875   0.5879508655869164
CELL_PARAMETERS bohr
-2.636660329639161e-16  10.264083424  10.264083424
10.264083424  -1.8438084260700684e-34  10.264083424
10.264083424  10.264083424  2.636660329639161e-16
K_POINTS automatic
4 4 4 0 0 0
