&control
  calculation = 'scf'
    restart_mode='from_scratch',
prefix  = 'Si_diamond.scf.in.super.222.replace6365'
    tstress = .true.
    tprnfor = .true.
    pseudo_dir = '/users/kfg/psuedo/gbrv_1.5/',
outdir  = '/tmp/Si_diamond.scf.in.super.222.replace1018'
    disk_io = 'low'
    wf_collect = .true.
    verbosity = 'high'    
 /
&system
    ibrav=  0, 
   nat  = 16
    ntyp= 1,
    ecutwfc = 35,
    ecutrho = 200,
    q2sigma = 1
    ecfixed = 34.5
    qcutz = 800
    occupations = 'smearing'
    smearing = 'gaussian',
    degauss  = 0.015
    lda_plus_u = .false.
 /
&electrons
    diagonalization='david'
    mixing_mode = 'local-TF'
    mixing_beta = 0.3
    conv_thr =  1.0d-9
 /
&ions
  ion_dynamics='bfgs',
/
&cell
 cell_dynamics = 'bfgs'
/
ATOMIC_SPECIES
Si   28.0855  si.pbesol.UPF
ATOMIC_POSITIONS crystal
Si	-0.01549661733422936   -0.019889631655781007   0.012484512226804327
Si	0.118577276426615   0.14312296984456588   0.09223788076103517
Si	-0.011317775756198316   0.016687887039687994   0.5015340680463981
Si	0.11854725717087308   0.12489233318998307   0.6387850335646829
Si	0.02139696867955025   0.513783809850839   -0.002280698970220142
Si	0.14995363799785988   0.6090061117473707   0.17835064127074277
Si	-0.01871670019994419   0.5099955953249774   0.5388438865762666
Si	0.14248491078016   0.6448148902403349   0.6169368588830817
Si	0.47363411270794165   -0.015694130182798346   0.01750797292977481
Si	0.6002090249422948   0.13955194413036442   0.11488769625235826
Si	0.49425657899737724   0.0060312642741587345   0.47666088209408397
Si	0.609235158402764   0.10376362844469612   0.6471617165647157
Si	0.5242853821367878   0.49484284644344234   -0.020096214123041002
Si	0.6445789223582408   0.6149631422317786   0.10584339125807221
Si	0.5291647036749779   0.479672792613035   0.4777819174257575
Si	0.6192071590149284   0.634454546463345   0.6033604552394871
CELL_PARAMETERS bohr
-2.636660329639161e-16  10.264083424  10.264083424
10.264083424  -1.8438084260700684e-34  10.264083424
10.264083424  10.264083424  2.636660329639161e-16
K_POINTS automatic
4 4 4 0 0 0
