&control
  calculation = 'scf'
    restart_mode='from_scratch',
prefix  = 'Si_diamond.scf.in.super.222.replace6339'
    tstress = .true.
    tprnfor = .true.
    pseudo_dir = '/users/kfg/psuedo/gbrv_1.5/',
outdir  = '/tmp/Si_diamond.scf.in.super.222.replace8942'
    disk_io = 'low'
    wf_collect = .true.
    verbosity = 'high'    
 /
&system
    ibrav=  0, 
   nat  = 16
    ntyp= 1,
    ecutwfc = 35,
    ecutrho = 200,
    q2sigma = 1
    ecfixed = 34.5
    qcutz = 800
    occupations = 'smearing'
    smearing = 'gaussian',
    degauss  = 0.015
    lda_plus_u = .false.
 /
&electrons
    diagonalization='david'
    mixing_mode = 'local-TF'
    mixing_beta = 0.3
    conv_thr =  1.0d-9
 /
&ions
  ion_dynamics='bfgs',
/
&cell
 cell_dynamics = 'bfgs'
/
ATOMIC_SPECIES
Si   28.0855  si.pbesol.UPF
ATOMIC_POSITIONS crystal
Si	-0.0018908081247492974   -0.04009026239965974   0.021269926359757295
Si	0.10756558979762285   0.11707110184813548   0.13590767866055753
Si	-0.056860172875833656   0.013004858884589285   0.504608656338548
Si	0.06268219147391887   0.14214041838246236   0.6508087481898107
Si	0.04486177384771607   0.485826686965906   -0.02031768620757874
Si	0.17662424996561019   0.58853311231732   0.12141831625824565
Si	0.00793891017198134   0.5168608612673046   0.5082211844110482
Si	0.1423453584438948   0.6516495719295249   0.6056631979134758
Si	0.4757402804906256   -0.005975932117066749   -0.008096153078124663
Si	0.6042397090845464   0.08450731682554188   0.16027021236389927
Si	0.4467011442613307   0.02307707565535304   0.5243900550645847
Si	0.5713642231472575   0.16521109605214324   0.6257438883234839
Si	0.54790163653475   0.46822440173919205   -0.011546058592484884
Si	0.678566402200498   0.6116200882807559   0.09701646023509472
Si	0.5384057120684248   0.5356088205198024   0.4674582576768975
Si	0.6538137995124035   0.6427307838486954   0.6171833160827846
CELL_PARAMETERS bohr
-2.636660329639161e-16  10.264083424  10.264083424
10.264083424  -1.8438084260700684e-34  10.264083424
10.264083424  10.264083424  2.636660329639161e-16
K_POINTS automatic
4 4 4 0 0 0
