supercell                               
   1.0000000000000000     
     0.0469120898944990    8.1026825688726607    8.1057422823401115
     8.1617226594924546    0.0301375744119836    8.1225167978226285
     8.2559910995972405    8.2137255244599618   -0.0641308656928029
   Si
    54
Direct
  0.0024545640033722  0.0004407118215184  0.0005053823397532
  0.0836051571774306  0.0848983080010015  0.0836869084428926
  0.9983911195513073  0.9985819550895272  0.3331207063944248
  0.0867612668199698  0.0828265830088597  0.4151479910102864
  0.0013035765134433  0.9994938154087052  0.6646924539226973
  0.0817320163908875  0.0821568624176834  0.7515129669997265
  0.9988566730890369  0.3322003119355728  0.0017842153176417
  0.0817834768249170  0.4161678160743136  0.0821602484869501
  0.9986166573937609  0.3326514586840190  0.3360455493388415
  0.0826289787885415  0.4145772981296361  0.4204873949348666
  0.0011990195057621  0.3346131941819621  0.6654369171546222
  0.0858727819814789  0.4147827082986595  0.7502530520713151
  0.0005735225271195  0.6692841275085897  0.9981456384465446
  0.0812763139570549  0.7509305983533068  0.0838813387794417
  0.9997500856842265  0.6670372776295181  0.3319208115715497
  0.0839408900605392  0.7498484454221881  0.4175139600516857
  0.9974570503364220  0.6666670697707531  0.6689583955940321
  0.0861273768397552  0.7504232153459967  0.7504228820965935
  0.3307543405848463  0.9998028854532919  0.0016233191854838
  0.4190532995696827  0.0822561525369281  0.0818681352751085
  0.3307686407177144  0.9999301946471846  0.3350592147700766
  0.4168828132755991  0.0823125356565697  0.4153901235524842
  0.3352302998971197  0.0001818101139719  0.6643096774703707
  0.4181184344758364  0.0839630278050620  0.7492139290436981
  0.3338830709322451  0.3333261929862772  0.9970234244986500
  0.4171331309413731  0.4178954251715155  0.0842070739172769
  0.3345263458472658  0.3339773792895784  0.3328043958217748
  0.4145079392060751  0.4162124489273822  0.4189492638712622
  0.3349780737950923  0.3320604655153261  0.6674874226848857
  0.4146036577210737  0.4171761668370664  0.7511127139568785
  0.3321319560443499  0.6648200751658919  0.9994272686388896
  0.4175517796905552  0.7469665497197298  0.0847591431701247
  0.3320501717580413  0.6673238216132589  0.3315660006357817
  0.4163228323456210  0.7521505282118568  0.4168744600925862
  0.3350474675609689  0.6643478990872396  0.6668256198372973
  0.4162852608183414  0.7474545471093492  0.7525840808550370
  0.6670127100381578  0.0014246531193436  0.9971035897341025
  0.7519620778853309  0.0845529772206177  0.0812338289819223
  0.6685640652016573  0.0008542550726176  0.3296551301569579
  0.7491208313674278  0.0816894208673915  0.4155967542115562
  0.6658225287726438  0.9987078502246476  0.6671893086146596
  0.7494280852984119  0.0854979180117539  0.7489235013621567
  0.6683620118082843  0.3305208864397287  0.0013226790243550
  0.7501008187357812  0.4171087976965282  0.0836495082140942
  0.6645924045893850  0.3328027980828736  0.3349899027766199
  0.7506364575931954  0.4142539788395609  0.4180201343941548
  0.6687115753319759  0.3332899448446511  0.6670137227451463
  0.7522785230959315  0.4166582301741784  0.7505470753117578
  0.6640280307761088  0.6678239154800849  0.9997833362064696
  0.7515694615831592  0.7475424331315850  0.0832187170291192
  0.6675471072461079  0.6661413347583789  0.3352300937208454
  0.7494598863130406  0.7510328855801163  0.4148817269674296
  0.6687806761696464  0.6677268358793214  0.6660940124595669
  0.7480784054550327  0.7500212202242480  0.7489479509400141

  0.00000000E+00  0.00000000E+00  0.00000000E+00
  0.00000000E+00  0.00000000E+00  0.00000000E+00
  0.00000000E+00  0.00000000E+00  0.00000000E+00
  0.00000000E+00  0.00000000E+00  0.00000000E+00
  0.00000000E+00  0.00000000E+00  0.00000000E+00
  0.00000000E+00  0.00000000E+00  0.00000000E+00
  0.00000000E+00  0.00000000E+00  0.00000000E+00
  0.00000000E+00  0.00000000E+00  0.00000000E+00
  0.00000000E+00  0.00000000E+00  0.00000000E+00
  0.00000000E+00  0.00000000E+00  0.00000000E+00
  0.00000000E+00  0.00000000E+00  0.00000000E+00
  0.00000000E+00  0.00000000E+00  0.00000000E+00
  0.00000000E+00  0.00000000E+00  0.00000000E+00
  0.00000000E+00  0.00000000E+00  0.00000000E+00
  0.00000000E+00  0.00000000E+00  0.00000000E+00
  0.00000000E+00  0.00000000E+00  0.00000000E+00
  0.00000000E+00  0.00000000E+00  0.00000000E+00
  0.00000000E+00  0.00000000E+00  0.00000000E+00
  0.00000000E+00  0.00000000E+00  0.00000000E+00
  0.00000000E+00  0.00000000E+00  0.00000000E+00
  0.00000000E+00  0.00000000E+00  0.00000000E+00
  0.00000000E+00  0.00000000E+00  0.00000000E+00
  0.00000000E+00  0.00000000E+00  0.00000000E+00
  0.00000000E+00  0.00000000E+00  0.00000000E+00
  0.00000000E+00  0.00000000E+00  0.00000000E+00
  0.00000000E+00  0.00000000E+00  0.00000000E+00
  0.00000000E+00  0.00000000E+00  0.00000000E+00
  0.00000000E+00  0.00000000E+00  0.00000000E+00
  0.00000000E+00  0.00000000E+00  0.00000000E+00
  0.00000000E+00  0.00000000E+00  0.00000000E+00
  0.00000000E+00  0.00000000E+00  0.00000000E+00
  0.00000000E+00  0.00000000E+00  0.00000000E+00
  0.00000000E+00  0.00000000E+00  0.00000000E+00
  0.00000000E+00  0.00000000E+00  0.00000000E+00
  0.00000000E+00  0.00000000E+00  0.00000000E+00
  0.00000000E+00  0.00000000E+00  0.00000000E+00
  0.00000000E+00  0.00000000E+00  0.00000000E+00
  0.00000000E+00  0.00000000E+00  0.00000000E+00
  0.00000000E+00  0.00000000E+00  0.00000000E+00
  0.00000000E+00  0.00000000E+00  0.00000000E+00
  0.00000000E+00  0.00000000E+00  0.00000000E+00
  0.00000000E+00  0.00000000E+00  0.00000000E+00
  0.00000000E+00  0.00000000E+00  0.00000000E+00
  0.00000000E+00  0.00000000E+00  0.00000000E+00
  0.00000000E+00  0.00000000E+00  0.00000000E+00
  0.00000000E+00  0.00000000E+00  0.00000000E+00
  0.00000000E+00  0.00000000E+00  0.00000000E+00
  0.00000000E+00  0.00000000E+00  0.00000000E+00
  0.00000000E+00  0.00000000E+00  0.00000000E+00
  0.00000000E+00  0.00000000E+00  0.00000000E+00
  0.00000000E+00  0.00000000E+00  0.00000000E+00
  0.00000000E+00  0.00000000E+00  0.00000000E+00
  0.00000000E+00  0.00000000E+00  0.00000000E+00
  0.00000000E+00  0.00000000E+00  0.00000000E+00
